 $CONTRL EXETYP=RUN $END
 $CONTRL SCFTYP=RHF DFTTYP=B97D RUNTYP=OPTIMIZE MAXIT=100 ICHARG=0
         D5=.T. INTTYP=HONDO ICUT=11 ITOL=30 $END
 $SYSTEM TIMLIM=3600 MWORDS=80 $END
 $SCF    DIRSCF=.T. NCONV=7 $END
 $BASIS  EXTFIL=.T. GBASIS=TZVP $END
 $DFTD   VERSN=4 $END
 $SMP    HTTFIX=.F. CALL64=.T. $END
 $P2P    P2P=.T. XDLB=.T. $END
 $STATPT OPTTOL=0.0001 NSTEP=100 $END
 $DATA 
(CyB)4Q4 DFT-D4/def2TZVP with spherical basis functions. S4 Geom opt
S2N 2

 C           6.0   0.000000       3.574751       0.000000
 C           6.0   1.525723       3.232866       0.000000
 N           7.0   1.726035       2.532759      -1.238488
 N           7.0  -0.480147       3.027700      -1.239154
 N           7.0   0.480147      -3.027700       1.239154
 N           7.0  -1.726035      -2.532759       1.238488
 C           6.0   0.563286       2.512775      -2.021025
 O           8.0   0.484134       2.156015      -3.172344
 C           6.0  -0.563286      -2.512775       2.021025
 O           8.0  -0.484134      -2.156015       3.172344
 C           6.0   2.929904       1.857317      -1.675693
 H           1.0   2.908683       1.845145      -2.768808
 H           1.0   3.806826       2.413022      -1.326164
 C           6.0  -2.929904      -1.857317       1.675693
 H           1.0  -2.908683      -1.845145       2.768808
 H           1.0  -3.806826      -2.413022       1.326164
 C           6.0   0.341171       5.103778       0.000000
 H           1.0  -0.004987       5.628610      -0.893232
 H           1.0  -0.109957       5.672274       0.584916
 C           6.0   1.869902       4.761297       0.000000
 H           1.0   2.406658       5.088808      -0.893276
 H           1.0   2.390874       5.070647       0.520931
 $END