 $CONTRL EXETYP=RUN $END
 $CONTRL SCFTYP=RHF DFTTYP=B97D RUNTYP=ENERGY MAXIT=100 ICHARG=0
         D5=.T. INTTYP=HONDO ICUT=11 ITOL=30 $END
 $SYSTEM TIMLIM=3600 MWORDS=80 $END
 $SCF    DIRSCF=.T. NCONV=7 $END
 $BASIS  EXTFIL=.T. GBASIS=TZVP $END
 $DFTD   VERSN=4 $END
 $SMP    HTTFIX=.F. CALL64=.T. $END
 $P2P    P2P=.T. XDLB=.T. $END
 $STATPT OPTTOL=0.0001 NSTEP=100 $END
 $DATA 
Br- in (CyB)4Q4 DFT-D4/def2TZVP with spherical basis functions. C4h Br- ghost
CNH 4

 C           6.0  -1.5962923971   3.1983705487   0.0000000000
 C           6.0  -0.0771833975   3.5732171073   0.0000000000
 N           7.0   0.4112941833   3.0626551733  -1.2492742696
 N           7.0  -1.7914589191   2.5200452883  -1.2501758838
 C           6.0  -0.6181512911   2.5008696071  -2.0178473631
 O           8.0  -0.5346658271   2.1647935570  -3.1771267530
 C           6.0   1.7917552531   2.9684358026  -1.6744996615
 H           1.0   2.3299568930   3.8606766763  -1.3300974869
 H           1.0   1.7751310997   2.9428836221  -2.7678257559
 C           6.0  -0.4535280915   5.0986831527   0.0000000000
 H           1.0  -0.1190264732   5.6305554337  -0.8948014174
 C           6.0  -1.9733346945   4.7234740222   0.0000000000
 H           1.0  -2.5169607038   5.0382233127  -0.8948617187
 BR        -35.0   0.0000000000   0.0000000000   0.0000000000
 $END