 $CONTRL EXETYP=RUN $END
 $CONTRL SCFTYP=RHF DFTTYP=B97D RUNTYP=ENERGY MAXIT=100 ICHARG=0
         D5=.T. INTTYP=HONDO ICUT=11 ITOL=30 $END
 $SYSTEM TIMLIM=3600 MWORDS=80 $END
 $SCF    DIRSCF=.T. NCONV=7 $END
 $BASIS  EXTFIL=.T. GBASIS=TZVP $END
 $DFTD   VERSN=4 $END
 $SMP    HTTFIX=.F. CALL64=.T. $END
 $P2P    P2P=.T. XDLB=.T. $END
 $STATPT OPTTOL=0.0001 NSTEP=100 $END
 $DATA 
F- in (CyB)4Q4 DFT-D4/def2TZVP with spherical basis functions. C4h F- ghost
CNH 4

 C           6.0  -1.5899323360   3.1813251800   0.0000000000
 C           6.0  -0.0748154814   3.5554856564   0.0000000000
 N           7.0   0.4117782338   3.0411755332  -1.2452447545
 N           7.0  -1.7817550235   2.5003650613  -1.2460893127
 C           6.0  -0.6124113705   2.4782115106  -2.0138032674
 O           8.0  -0.5286011539   2.1418989156  -3.1732241844
 C           6.0   1.7868620719   2.9604616692  -1.6739880845
 H           1.0   2.3247125205   3.8522328401  -1.3272377476
 H           1.0   1.7716120071   2.9371832318  -2.7676427879
 C           6.0  -0.4491196091   5.0820465594   0.0000000000
 H           1.0  -0.1146125218   5.6141034550  -0.8947587949
 C           6.0  -1.9691254147   4.7064736655   0.0000000000
 H           1.0  -2.5129934543   5.0210115787  -0.8948062687
 F          -9.0   0.0000000000   0.0000000000   0.0000000000
 $END