 $CONTRL EXETYP=RUN $END
 $CONTRL SCFTYP=RHF DFTTYP=B97D RUNTYP=ENERGY MAXIT=100 ICHARG=0
         D5=.T. INTTYP=HONDO ICUT=11 ITOL=30 $END
 $SYSTEM TIMLIM=3600 MWORDS=60 $END
 $SCF    DIRSCF=.T. NCONV=7 $END
 $BASIS  EXTFIL=.T. GBASIS=TZVP $END
 $DFTD   VERSN=4 $END
 $SMP    HTTFIX=.F. CALL64=.T. $END
 $P2P    P2P=.T. XDLB=.T. $END
 $STATPT OPTTOL=0.0001 NSTEP=100 $END
 $DATA 
F- in Q4 DFT-D4/def2TZVP & spherical basis functions. C4h. F- ghost
CNH 4

 C           6.0  -1.6239168923   3.1806868484   0.0000000000
 C           6.0  -0.0974705754   3.5696051840   0.0000000000
 N           7.0   0.3826700290   3.0323358520  -1.2475168194
 N           7.0  -1.7887690951   2.4797925903  -1.2481879579
 C           6.0  -0.6271532545   2.4593886046  -2.0154215795
 O           8.0  -0.5397758070   2.1185770139  -3.1740037454
 C           6.0   1.7597081461   2.9647970623  -1.6704476694
 H           1.0   2.2899319933   3.8583798406  -1.3132061214
 H           1.0   1.7490019059   2.9484032855  -2.7644457064
 H           1.0   0.0519957739   4.6638009963   0.0000000000
 H           1.0  -2.2784707700   4.0701870982   0.0000000000
 F          -9.0   0.0000000000   0.0000000000   0.0000000000
 $END
