 $CONTRL EXETYP=RUN $END
 $CONTRL SCFTYP=RHF DFTTYP=B97D RUNTYP=ENERGY MAXIT=200 ICHARG=0
         D5=.T. INTTYP=HONDO ICUT=11 ITOL=30 $END
 $SYSTEM TIMLIM=3600 MWORDS=80 $END
 $SCF    DIRSCF=.T. NCONV=7 $END
 $BASIS  EXTFIL=.T. GBASIS=TZVP $END
 $DFTD   VERSN=4 $END
 $SMP    HTTFIX=.F. CALL64=.T. $END
 $P2P    P2P=.T. XDLB=.T. $END
 $STATPT OPTTOL=0.0001 NSTEP=100 $END
 $DATA 
H2 axial in Q4 DFT-D4/def2TZVP & spherical basis functions. C4h. H2 ghost
CNH 4

 C           6.0  -1.6299937570   3.1980778014   0.0000000000
 C           6.0  -0.1005317932   3.5878134377   0.0000000000
 N           7.0   0.3845927543   3.0295162254  -1.2406592004
 N           7.0  -1.7889894145   2.4760450872  -1.2411875357
 C           6.0  -0.6323386742   2.4797962190  -2.0212475977
 O           8.0  -0.5381997278   2.1130581564  -3.1685865158
 C           6.0   1.7655242735   2.9746186055  -1.6720803298
 H           1.0   2.2945339796   3.8661453976  -1.3157451278
 H           1.0   1.7552020524   2.9587788502  -2.7653250762
 H           1.0   0.0520941817   4.6779334108   0.0000000000
 H           1.0  -2.2852939897   4.0825380365   0.0000000000
 H          -1.0   0.0000000000   0.0000000000   0.3717567577
 $END
