 $CONTRL EXETYP=RUN $END
 $CONTRL SCFTYP=RHF DFTTYP=B97D RUNTYP=ENERGY MAXIT=200 ICHARG=0
         D5=.T. INTTYP=HONDO ICUT=11 ITOL=30 $END
 $SYSTEM TIMLIM=3600 MWORDS=80 $END
 $SCF    DIRSCF=.T. NCONV=7 $END
 $BASIS  EXTFIL=.T. GBASIS=TZVP $END
 $DFTD   VERSN=4 $END
 $SMP    HTTFIX=.F. CALL64=.T. $END
 $P2P    P2P=.T. XDLB=.T. $END
 $STATPT OPTTOL=0.0001 NSTEP=100 $END
 $DATA 
HCCH axial in Q4 DFT-D4/def2TZVP & spherical basis functions. C4h. HCCH ghost
CNH 4

 C           6.0  -1.6341877134   3.2098363106   0.0000000000
 C           6.0  -0.1023284415   3.5994474876   0.0000000000
 N           7.0   0.3831694756   3.0449139202  -1.2435348098
 N           7.0  -1.7957541149   2.4915146526  -1.2443130768
 C           6.0  -0.6366192048   2.4958802146  -2.0184980583
 O           8.0  -0.5388833493   2.1140059222  -3.1625948320
 C           6.0   1.7677770634   2.9783352755  -1.6720780870
 H           1.0   2.2969616373   3.8709257965  -1.3188628023
 H           1.0   1.7560835383   2.9602320828  -2.7650067026
 H           1.0   0.0484514315   4.6897459749   0.0000000000
 H           1.0  -2.2874282510   4.0956817536   0.0000000000
 H          -1.0   0.0000000000   0.0000000000  -1.6688147637
 C          -6.0   0.0000000000   0.0000000000  -0.6003314019
 $END
