 $CONTRL EXETYP=RUN $END
 $CONTRL SCFTYP=RHF DFTTYP=B97D RUNTYP=ENERGY MAXIT=100 ICHARG=0
         D5=.T. INTTYP=HONDO ICUT=11 ITOL=30 $END
 $SYSTEM TIMLIM=3600 MWORDS=80 $END
 $SCF    DIRSCF=.T. NCONV=7 $END
 $BASIS  EXTFIL=.T. GBASIS=TZVP $END
 $DFTD   VERSN=4 $END
 $SMP    HTTFIX=.F. CALL64=.T. $END
 $P2P    P2P=.T. XDLB=.T. $END
 $STATPT OPTTOL=0.0001 NSTEP=100 $END
 $DATA 
HF axial in Q4 DFT-D4/def2TZVP with spherical basis functions. C4. HF ghost
CN 4

 C           6.0  -1.6769490185   4.0168437696  -0.0269869404
 C           6.0  -0.1412003428   4.3517529661  -0.0269098470
 H           1.0   0.0621066918   5.4343038343  -0.0225464497
 H           1.0  -2.3124167256   4.9165812197  -0.0277164648
 N           7.0   0.3258644453   3.7702823323  -1.2622049321
 N           7.0  -1.8587083060   3.2871490200  -1.2586569248
 N           7.0   0.3261839824   3.7624087397   1.2056929143
 N           7.0  -1.8583865811   3.2921357415   1.2081679088
 C           6.0  -0.6968870535   3.2086859019  -2.0246005482
 O           8.0  -0.6042565180   2.7826032829  -3.1524328373
 C           6.0  -0.6912178684   3.1834293286   1.9568627640
 O           8.0  -0.5905853877   2.7212491576   3.0720456883
 C           6.0   1.6843497309   3.8293165878  -1.7488362445
 H           1.0   2.1160605801   4.8052827547  -1.4875921865
 H           1.0   1.6364754927   3.7178394206  -2.8358207705
 C           6.0   1.6826566817   3.8247467617   1.6957830243
 H           1.0   2.1112862939   4.8021804854   1.4359320792
 H           1.0   1.6325084173   3.7123222862   2.7823622030
 F           9.0   0.0000000000   0.0000000000   1.3017802054
 H           1.0   0.0000000000   0.0000000000   2.2355076160
 $END