 $CONTRL EXETYP=RUN $END
 $CONTRL SCFTYP=RHF DFTTYP=B97D RUNTYP=ENERGY MAXIT=200 ICHARG=0
         D5=.T. INTTYP=HONDO ICUT=11 ITOL=30 $END
 $SYSTEM TIMLIM=3600 MWORDS=80 $END
 $SCF    DIRSCF=.T. NCONV=7 $END
 $BASIS  EXTFIL=.T. GBASIS=TZVP $END
 $DFTD   VERSN=4 $END
 $SMP    HTTFIX=.F. CALL64=.T. $END
 $P2P    P2P=.T. XDLB=.T. $END
 $STATPT OPTTOL=0.0001 NSTEP=100 $END
 $DATA 
OH- axial in Q4 DFT-D4/def2TZVP & spherical basis functions. C4. OH- ghost
CN 4

 C           6.0  -1.6254878260   3.1854441705  -0.0052842377
 C           6.0  -0.0982102903   3.5738838861  -0.0051989407
 N           7.0   0.3822923894   3.0367338181  -1.2513972781
 N           7.0  -1.7905089488   2.4830346693  -1.2515463870
 C           6.0  -0.6261742852   2.4546213013  -2.0144280217
 O           8.0  -0.5363607723   2.1036679636  -3.1694652118
 C           6.0   1.7600398362   2.9656386089  -1.6724890782
 H           1.0   2.2902509501   3.8591437234  -1.3147893176
 H           1.0   1.7495416979   2.9491567659  -2.7664896265
 H           1.0   0.0507279700   4.6680341783  -0.0041347173
 H           1.0  -2.2788232863   4.0755798557  -0.0057404067
 N           7.0   0.3823618136   3.0388306866   1.2449210850
 N           7.0  -1.7926714373   2.4884258413   1.2466409828
 C           6.0  -0.6274541860   2.4601633431   2.0073788183
 O           8.0  -0.5354927460   2.1007597206   3.1611498366
 C           6.0   1.7613282596   2.9672954603   1.6664544522
 H           1.0   2.2904819864   3.8606377544   1.3076968807
 H           1.0   1.7505105029   2.9513305149   2.7603849691
 O          -8.0   0.0000000000   0.0000000000  -0.0011108523
 H          -1.0   0.0000000000   0.0000000000   0.9658192686
 $END
