 $CONTRL EXETYP=RUN $END
 $CONTRL SCFTYP=RHF DFTTYP=B97D RUNTYP=OPTIMIZE MAXIT=100 ICHARG=0
         D5=.T. INTTYP=HONDO ICUT=11 ITOL=30 $END
 $SYSTEM TIMLIM=3600 MWORDS=80 $END
 $SCF    DIRSCF=.T. NCONV=7 $END
 $BASIS  EXTFIL=.T. GBASIS=TZVP $END
 $DFTD   VERSN=4 $END
 $SMP    HTTFIX=.F. CALL64=.T. $END
 $P2P    P2P=.T. XDLB=.T. $END
 $STATPT OPTTOL=0.0001 NSTEP=100 $END
 $DATA 
Ar in (CyB)4Q4 DFT-D4/def2TZVP with spherical basis functions. C4h Geom opt
CNH 4

 C           6.0  -1.5957402413   3.1988210459   0.0000000000
 C           6.0  -0.0778516266   3.5739604024   0.0000000000
 N           7.0   0.4139170894   3.0368964799  -1.2384877673
 N           7.0  -1.7811944576   2.4949655074  -1.2391540094
 C           6.0  -0.6176337127   2.4999716027  -2.0210249788
 O           8.0  -0.5292063498   2.1453968292  -3.1723443655
 C           6.0   1.7926967804   2.9698826832  -1.6756928746
 H           1.0   2.3293369759   3.8585990058  -1.3261638105
 H           1.0   1.7791408509   2.9495180390  -2.7688079212
 C           6.0  -0.4521471902   5.0952967389   0.0000000000
 H           1.0  -0.1180348823   5.6279687795  -0.8932759767
 C           6.0  -1.9729930033   4.7193478881   0.0000000000
 H           1.0  -2.5170287295   5.0344654110  -0.8932324271
 Ar         18.0   0.0000000000   0.0000000000   0.0000000000
 $END