!   File created by MacMolPlt 7.7
 $CONTRL SCFTYP=ROHF RUNTYP=ENERGY MAXIT=30 MULT=2 $END
 $SYSTEM TIMLIM=525600 MEMORY=1000000 $END
 $BASIS GBASIS=MINI $END
 $SCF DIRSCF=.TRUE. $END
 $DATA 
Title
CS

C     6.0     0.71847     0.03040     3.47924
C     6.0    -3.47931    -0.03022     0.71847
C     6.0    -0.71848     0.03015    -3.47923
C     6.0     3.47932    -0.03031    -0.71848
N     7.0    -1.15168     1.17910     2.65581
N     7.0    -2.95126     1.27267    -1.17168
N     7.0     1.15169     1.17890    -2.65590
N     7.0     2.65598    -1.17899     1.15173
N     7.0    -1.17167    -1.27257     2.95131
N     7.0    -2.65597    -1.17903    -1.15165
N     7.0     1.17164    -1.27281    -2.95120
N     7.0     2.95132     1.27273     1.17160
C     6.0    -2.59884     2.00244     0.00000
C     6.0     0.00971     1.92939    -2.34732
C     6.0     2.34743    -1.92955     0.00000
C     6.0    -2.34746    -1.92951     0.00000
C     6.0     0.01071    -2.00244    -2.59857
C     6.0     2.59887     2.00240     0.00000
O     8.0    -2.27566     3.15797     0.00000
O     8.0     0.00825     3.07419    -1.99277
O     8.0     1.99295    -3.07437     0.00000
O     8.0    -1.99301    -3.07433     0.00000
O     8.0     0.00937    -3.15799    -2.27543
O     8.0     2.27572     3.15793     0.00000
C     6.0    -2.39781     1.65263    -2.44409
C     6.0     2.36345    -1.65341     2.47529
C     6.0    -2.36348    -1.65357    -2.47517
C     6.0     2.47524     1.65340    -2.36350
H     1.0    -3.06801     1.32328    -3.24711
H     1.0     3.14442    -1.32503     3.17155
H     1.0    -3.14446    -1.32523    -3.17145
H     1.0     3.17147     1.32499    -3.14449
H     1.0    -2.32657     2.74784    -2.39520
H     1.0     2.31617    -2.74855     2.40177
H     1.0    -2.31621    -2.74870    -2.40156
H     1.0     2.40169     2.74854    -2.31627
H     1.0    -1.27390     0.14485     4.46392
H     1.0    -4.46400    -0.14463    -1.27389
H     1.0     1.27388     0.14450    -4.46393
H     1.0     4.46401    -0.14460     1.27389
B     5.0     0.00000    -0.00054     0.00000
H     1.0     0.91400     0.73580     0.00000
H     1.0    -0.91399     0.73582     0.00000
H     1.0    -0.00378    -0.73708     0.91393
 $END
