 $CONTRL EXETYP=RUN $END
 $CONTRL SCFTYP=RHF DFTTYP=B97D RUNTYP=OPTIMIZE MAXIT=100 ICHARG=-1
         D5=.T. INTTYP=HONDO ICUT=11 ITOL=30 $END
 $SYSTEM TIMLIM=3600 MWORDS=60 $END
 $SCF    DIRSCF=.T. NCONV=6 $END
 $BASIS  EXTFIL=.T. GBASIS=TZVP $END
 $DFTD   VERSN=4 $END
 $SMP    HTTFIX=.F. CALL64=.T. $END
 $P2P    P2P=.T. XDLB=.T. $END
 $STATPT OPTTOL=0.0001 NSTEP=100 $END
 $DATA 
BH4- in Q4 DFT-D4/def2TZVP & spherical basis functions. C2 geom opt
CN 2

C     6.0    -2.99036    -1.91796     0.03089
C     6.0    -1.91802     2.99042    -0.03081
C     6.0    -1.88884    -3.00891     0.03041
C     6.0    -3.00897     1.88890    -0.03026
N     7.0    -1.09449    -2.68114     1.17905
N     7.0     2.68126    -1.09465    -1.17898
N     7.0    -1.29167    -2.89963    -1.27289
N     7.0    -2.89957     1.29172     1.27304
N     7.0    -2.66918    -1.12036     1.17909
N     7.0     1.12044    -2.66933    -1.17894
N     7.0    -2.88805    -1.31987    -1.27259
N     7.0    -1.31985     2.88810     1.27264
C     6.0    -1.63119    -1.68777     1.92957
C     6.0     1.69459    -1.62448    -1.92951
C     6.0    -1.80597    -1.86867    -2.00225
C     6.0    -1.87609     1.79845     2.00240
O     8.0    -1.38474    -1.43276     3.07434
O     8.0     1.43864    -1.37927    -3.07433
O     8.0    -1.58146    -1.63638    -3.15782
O     8.0    -1.64274     1.57490     3.15793
C     6.0     0.03988    -3.42358     1.65282
C     6.0     3.42365     0.03977    -1.65275
C     6.0    -0.00657    -3.42244    -1.65338
C     6.0    -3.42233     0.00662     1.65357
H     1.0    -0.03197    -4.46708     1.32352
H     1.0     4.46714    -0.03202    -1.32343
H     1.0     0.07544    -4.46550    -1.32500
H     1.0    -4.46539    -0.07545     1.32522
H     1.0     0.02234    -3.33893     2.74802
H     1.0     3.33903     0.02217    -2.74796
H     1.0     0.01018    -3.33665    -2.74852
H     1.0    -3.33650    -0.01013     2.74871
H     1.0    -2.30216    -4.03125     0.14345
H     1.0    -4.03132     2.30222    -0.14320
H     1.0    -4.00855    -2.34112     0.14483
H     1.0    -2.34120     4.00861    -0.14470
B     5.0    -0.00000    -0.00000    -0.00054
H     1.0     0.65987    -0.63242     0.73582
H     1.0     0.63510     0.65714    -0.73714
 $END
