 $CONTRL EXETYP=RUN $END
 $CONTRL SCFTYP=RHF DFTTYP=B97D RUNTYP=OPTIMIZE MAXIT=100 ICHARG=-1
         D5=.T. INTTYP=HONDO ICUT=11 ITOL=30 $END
 $SYSTEM TIMLIM=3600 MWORDS=60 $END
 $SCF    DIRSCF=.T. NCONV=6 $END
 $BASIS  EXTFIL=.T. GBASIS=TZVP $END
 $DFTD   VERSN=4 $END
 $SMP    HTTFIX=.F. CALL64=.T. $END
 $P2P    P2P=.T. XDLB=.T. $END
 $STATPT OPTTOL=0.0001 NSTEP=100 $END
 $DATA 
BH4- in Q4 DFT-D4/def2TZVP & spherical basis functions. C2 geom opt
CN 2

C     6.0    -0.00000    -3.60443     0.00108
C     6.0     3.60443    -0.00000    -0.00108
C     6.0    -1.53797    -3.24716     0.00179
C     6.0     3.24716    -1.53797    -0.00179
N     7.0    -1.73732    -2.54919    -1.25105
N     7.0    -2.54919     1.73732     1.25105
N     7.0    -1.71286    -2.55062     1.25131
N     7.0     2.55062    -1.71286    -1.25131
N     7.0     0.46981    -2.99983    -1.22533
N     7.0    -2.99983    -0.46981     1.22533
N     7.0     0.46834    -3.13107     1.29002
N     7.0     3.13107     0.46834    -1.29002
C     6.0    -0.56715    -2.48860    -2.00996
C     6.0    -2.48860     0.56715     2.00996
C     6.0    -0.55673    -2.52251     2.03078
C     6.0     2.52251    -0.55673    -2.03078
O     8.0    -0.48168    -2.14954    -3.16931
O     8.0    -2.14954     0.48168     3.16931
O     8.0    -0.48154    -2.14886     3.17725
O     8.0     2.14886    -0.48154    -3.17725
C     6.0    -2.94526    -1.85901    -1.67971
C     6.0    -1.85901     2.94526     1.67971
C     6.0    -2.90617    -1.84548     1.66327
C     6.0     1.84548    -2.90617    -1.66327
H     1.0    -3.80838    -2.42705    -1.31972
H     1.0    -2.42705     3.80838     1.31972
H     1.0    -3.78464    -2.39572     1.30734
H     1.0     2.39572    -3.78464    -1.30734
H     1.0    -2.90626    -1.85015    -2.77399
H     1.0    -1.85015     2.90626     2.77399
H     1.0    -2.89156    -1.82947     2.75819
H     1.0     1.82947    -2.89156    -2.75819
H     1.0    -2.16655    -4.15352     0.00618
H     1.0     4.15352    -2.16655    -0.00618
H     1.0     0.17249    -4.69410    -0.04265
H     1.0     4.69410     0.17249     0.04265
B     5.0    -0.00000    -0.00000     0.00000
H     1.0    -0.90382    -0.33471    -0.70333
H     1.0    -0.33471     0.90382     0.70333
 $END
