 $CONTRL SCFTYP=RHF DFTTYP=B97D RUNTYP=OPTIMIZE ICHARG=-1
         D5=.T. INTTYP=HONDO ICUT=11 ITOL=30 $END
 $SYSTEM TIMLIM=3600 MWORDS=130 $END
 $SCF    DIRSCF=.T. NCONV=7 $END
 $BASIS  EXTFIL=.T. GBASIS=TZVP $END
 $DFTD   VERSN=4 $END
 $SMP    HTTFIX=.F. CALL64=.T. $END
 $P2P    P2P=.T. XDLB=.T. $END
 $STATPT OPTTOL=0.00005 NSTEP=100 $END
 $LICENSE NBOLID=1587 NBOKEY=BC142C89 $end
 $NBO FILE=Br-@Q4_opt_DFT-D4_def2TZVP.1 $END
 $DATA 
Br- in Q4 DFT-D4/def2TZVP with spherical basis functions. Geometry optimisation
C1
 C           6.0  -1.7470914078   0.0903756270  -1.2845842288
 C           6.0  -0.1885033459   0.1815508048  -1.4901265497
 N           7.0  -1.9747543823   0.9377798730  -0.1317000405
 N           7.0   0.2090319919   1.2285730204  -0.5810728012
 C           6.0  -0.8609711641   1.7229006830   0.1711611709
 N           7.0  -1.9873690439  -1.3281454792  -1.1522932682
 N           7.0   0.2543155390  -1.1700944485  -1.2187784785
 C           6.0  -0.8042801247  -2.0780100800  -1.1930130501
 C           6.0  -3.2701626987   1.2372493773   0.4543752535
 C           6.0  -3.1887589698  -1.9214314324  -0.6042631780
 H           1.0  -2.3054647143   0.4801360689  -2.1492944244
 H           1.0   0.0821036316   0.4624860812  -2.5194399526
 N           7.0  -3.5877703103   0.4547778303   1.6306780017
 N           7.0  -3.2668493082  -1.8789348562   0.8458001890
 C           6.0  -4.0313850553  -0.9192062535   1.6160703770
 C           6.0  -3.8059952459  -1.3942477954   3.0997726056
 C           6.0  -3.0767380591   0.8392010726   2.8774437180
 C           6.0  -2.8976409610  -2.9880530700   1.6082013487
 N           7.0  -3.1574502835  -2.6736486582   2.9463654956
 N           7.0  -3.0483509231  -0.3028138815   3.6786571787
 O           8.0  -2.4684428636  -4.0378510504   1.1927267028
 O           8.0  -2.7604331181   1.9579936759   3.2038829569
 H           1.0  -4.0522150283   1.0941540044  -0.3001139315
 H           1.0  -3.2483618180   2.2825027936   0.7743720399
 H           1.0  -3.1755570828  -2.9745765826  -0.8976532332
 H           1.0  -4.0684160869  -1.4253101586  -1.0302259615
 H           1.0  -5.0904100862  -0.9629514028   1.3191523370
 H           1.0  -4.7527617793  -1.5220776309   3.6463978404
 C           6.0  -2.4960365303  -3.4101945272   4.0040052421
 C           6.0  -2.5513951976  -0.2416543693   5.0401738364
 O           8.0  -0.7242691832  -3.2818725226  -1.2384878815
 O           8.0  -0.8306238597   2.6732480692   0.9153614431
 C           6.0   1.6287197152  -1.6308496650  -1.2297723954
 C           6.0   1.5718122522   1.5424662357  -0.2000389188
 N           7.0   2.2624824627  -1.6298216477   0.0727794248
 N           7.0   2.0962968805   0.7158352063   0.8694365772
 C           6.0   2.8813944189  -0.4902387520   0.7040781761
 C           6.0   3.1075088454  -0.9714312463   2.1854772760
 C           6.0   2.0893017289   1.1638511730   2.1908277309
 N           7.0   2.3856106219  -2.2263934701   2.2360726499
 N           7.0   2.6170594223   0.1317163676   2.9778017033
 O           8.0   1.7352885782   2.2498643246   2.5825806019
 O           8.0   1.6390931970  -3.7867654647   0.6781789677
 C           6.0   2.0335979802  -2.6818158987   0.9645677584
 H           1.0   1.6120094474  -2.6677174277  -1.5760425991
 H           1.0   2.2210066956  -1.0162849172  -1.9175580096
 H           1.0   2.2178619977   1.4627867685  -1.0820952072
 H           1.0   1.5699363644   2.5721539821   0.1675583277
 H           1.0   3.8265368981  -0.2514965912   0.1928672549
 H           1.0   4.1709024848  -1.1438399450   2.4114790197
 C           6.0   2.3234305811  -3.1168592139   3.3821651116
 C           6.0   2.2882241449   0.0606480157   4.3861075786
 N           7.0   1.1077268267  -3.0003229982   4.1599555920
 N           7.0  -1.1385958529  -2.9745728799   4.2694604235
 C           6.0  -0.0503949019  -3.6630621765   3.7321429907
 N           7.0   1.0102175206  -0.5697270230   4.6715885941
 N           7.0  -1.1754158076  -0.6703819558   5.1906300772
 C           6.0  -0.1304988429   0.2067820994   4.8823340513
 C           6.0  -0.7360306409  -2.0395406857   5.3003327389
 C           6.0   0.8222000937  -1.9414733729   5.1000529315
 O           8.0  -0.0909665932  -4.6647927138   3.0587163798
 O           8.0  -0.1987080002   1.4118530557   4.8423592031
 H           1.0  -2.4374376077  -4.4517147640   3.6764957893
 H           1.0  -3.0950690076  -3.3392661665   4.9192118724
 H           1.0  -3.1885020494  -0.8472959042   5.6950439351
 H           1.0  -2.5923697936   0.8069698011   5.3466647809
 H           1.0   3.1892004741  -2.9368580646   4.0297379030
 H           1.0   2.3488134891  -4.1411909909   3.0007019211
 H           1.0   2.2272030441   1.0924736459   4.7426313839
 H           1.0   3.0843294505  -0.4722977621   4.9190354455
 H           1.0  -1.0074261790  -2.4368831640   6.2904094892
 H           1.0   1.3744794463  -2.1192460646   6.0355578867
 BR         35.0  -0.4614880958  -0.8628546312   1.9095224746
 $END
