 $CONTRL EXETYP=RUN $END
 $CONTRL SCFTYP=RHF DFTTYP=B97D RUNTYP=ENERGY MAXIT=100 ICHARG=-1
         D5=.T. INTTYP=HONDO ICUT=11 ITOL=30 $END
 $SYSTEM TIMLIM=3600 MWORDS=60 $END
 $SCF    DIRSCF=.T. NCONV=7 $END
 $BASIS  EXTFIL=.T. GBASIS=TZVP $END
 $DFTD   VERSN=4 $END
 $SMP    HTTFIX=.F. CALL64=.T. $END
 $P2P    P2P=.T. XDLB=.T. $END
 $STATPT OPTTOL=0.0001 NSTEP=100 $END
 $DATA 
Br- in Q4 DFT-D4/def2TZVP & spherical basis functions. C4h. Q4 ghost
CNH 4

 C          -6.0  -1.6302795353   3.1985047367   0.0000000000
 C          -6.0  -0.0998971872   3.5869709626   0.0000000000
 N          -7.0   0.3818286110   3.0529523923  -1.2517657809
 N          -7.0  -1.7989858566   2.5002202525  -1.2526839774
 C          -6.0  -0.6338190916   2.4836707912  -2.0201894979
 O          -8.0  -0.5474997347   2.1452393324  -3.1794083180
 C          -6.0   1.7642768409   2.9726568455  -1.6713559274
 H          -1.0   2.2943053244   3.8675638066  -1.3174628488
 H          -1.0   1.7512793635   2.9523548856  -2.7649520332
 H          -1.0   0.0471479169   4.6810666417   0.0000000000
 H          -1.0  -2.2808798814   4.0902128306   0.0000000000
 BR         35.0   0.0000000000   0.0000000000   0.0000000000
 $END
