 $CONTRL EXETYP=RUN $END
 $CONTRL SCFTYP=RHF DFTTYP=B97D RUNTYP=ENERGY MAXIT=100 ICHARG=-1
         D5=.T. INTTYP=HONDO ICUT=11 ITOL=30 $END
 $SYSTEM TIMLIM=3600 MWORDS=80 $END
 $SCF    DIRSCF=.T. NCONV=7 $END
 $BASIS  EXTFIL=.T. GBASIS=TZVP $END
 $DFTD   VERSN=4 $END
 $SMP    HTTFIX=.F. CALL64=.T. $END
 $P2P    P2P=.T. XDLB=.T. $END
 $STATPT OPTTOL=0.0001 NSTEP=100 $END
 $DATA 
Cl- in (CyB)4Q4 DFT-D4/def2TZVP with spherical basis functions. C4h (CyB)4Q4 ghost
CNH 4

 C          -6.0  -1.5935634130   3.1911772158   0.0000000000
 C          -6.0  -0.0761771157   3.5659823965   0.0000000000
 N          -7.0   0.4115193221   3.0541553997  -1.2476471444
 N          -7.0  -1.7872543841   2.5116924087  -1.2484091392
 C          -6.0  -0.6157447096   2.4917882767  -2.0160734696
 O          -8.0  -0.5319112140   2.1548855627  -3.1751330626
 C          -6.0   1.7897613551   2.9650143199  -1.6741439103
 H          -1.0   2.3280400238   3.8568487292  -1.3285219235
 H          -1.0   1.7738641758   2.9406520217  -2.7675998042
 C          -6.0  -0.4519151176   5.0918446746   0.0000000000
 H          -1.0  -0.1174044629   5.6237171893  -0.8947966620
 C          -6.0  -1.9717473956   4.7163452123   0.0000000000
 H          -1.0  -2.5154532841   5.0310024241  -0.8948508783
 CL         17.0   0.0000000000   0.0000000000   0.0000000000
 $END