 $CONTRL EXETYP=RUN $END
 $CONTRL SCFTYP=RHF DFTTYP=B97D RUNTYP=OPTIMIZE MAXIT=100 ICHARG=-1
         D5=.T. INTTYP=HONDO ICUT=11 ITOL=30 $END
 $SYSTEM TIMLIM=3600 MWORDS=80 $END
 $SCF    DIRSCF=.T. NCONV=7 $END
 $BASIS  EXTFIL=.T. GBASIS=TZVP $END
 $DFTD   VERSN=4 $END
 $SMP    HTTFIX=.F. CALL64=.T. $END
 $P2P    P2P=.T. XDLB=.T. $END
 $STATPT OPTTOL=0.0001 NSTEP=100 $END
 $DATA 
Cl- in Q4 DFT-D4/def2TZVP with spherical basis functions. C4h Geom opt
CNH 4

 C           6.0  -1.6303929561   3.1991885661   0.0000000000
 C           6.0  -0.1007308810   3.5892476277   0.0000000000
 N           7.0   0.3845766097   3.0309512078  -1.2407926887
 N           7.0  -1.7893827486   2.4768177615  -1.2411270918
 C           6.0  -0.6332780285   2.4834876436  -2.0226625855
 O           8.0  -0.5402142134   2.1203931408  -3.1711010148
 C           6.0   1.7659249124   2.9752671367  -1.6720199408
 H           1.0   2.2951600793   3.8668356420  -1.3162842543
 H           1.0   1.7552782625   2.9586542585  -2.7651913105
 H           1.0   0.0508281259   4.6794086778   0.0000000000
 H           1.0  -2.2850519805   4.0839643240   0.0000000000
 CL         17.0   0.0000000000   0.0000000000   0.0000000000
 $END