 $CONTRL EXETYP=RUN $END
 $CONTRL SCFTYP=RHF DFTTYP=B97D RUNTYP=ENERGY MAXIT=100 ICHARG=-1
         D5=.T. INTTYP=HONDO ICUT=11 ITOL=30 $END
 $SYSTEM TIMLIM=3600 MWORDS=60 $END
 $SCF    DIRSCF=.T. NCONV=7 $END
 $BASIS  EXTFIL=.T. GBASIS=TZVP $END
 $DFTD   VERSN=4 $END
 $SMP    HTTFIX=.F. CALL64=.T. $END
 $P2P    P2P=.T. XDLB=.T. $END
 $STATPT OPTTOL=0.0001 NSTEP=100 $END
 $DATA 
Cl- in Q4 DFT-D4/def2TZVP & spherical basis functions. C4h. Q4 ghost
CNH 4

 C          -6.0  -1.6275192130   3.1910212065   0.0000000000
 C          -6.0  -0.0990394550   3.5797084146   0.0000000000
 N          -7.0   0.3821606651   3.0446073857  -1.2498963680
 N          -7.0  -1.7946444803   2.4917318397  -1.2507164312
 C          -6.0  -0.6310854428   2.4738310518  -2.0180438487
 O          -8.0  -0.5439926966   2.1335563217  -3.1766371747
 C          -6.0   1.7622439597   2.9691548270  -1.6707881127
 H          -1.0   2.2925926815   3.8637111139  -1.3162811341
 H          -1.0   1.7496868877   2.9496507918  -2.7644621003
 H          -1.0   0.0482095015   4.6739393368   0.0000000000
 H          -1.0  -2.2792410648   4.0820215716   0.0000000000
 CL         17.0   0.0000000000   0.0000000000   0.0000000000
 $END
