 $CONTRL EXETYP=RUN $END
 $CONTRL SCFTYP=RHF DFTTYP=B97D RUNTYP=OPTIMIZE MAXIT=200 ICHARG=0
         D5=.T. INTTYP=HONDO ICUT=11 ITOL=30 $END
 $SYSTEM TIMLIM=3600 MWORDS=80 $END
 $SCF    DIRSCF=.T. NCONV=7 $END
 $BASIS  EXTFIL=.T. GBASIS=TZVP $END
 $DFTD   VERSN=4 $END
 $SMP    HTTFIX=.F. CALL64=.T. $END
 $P2P    P2P=.T. XDLB=.T. $END
 $STATPT OPTTOL=0.0001 NSTEP=100 $END
 $DATA 
ClCN axial in Q4 DFT-D4/def2TZVP & spherical basis functions. C4 Geom opt
CN 4

 C           6.0  -1.6361007145   3.2103191111   0.0193866646
 C           6.0  -0.1007356482   3.6010685133   0.0192538319
 N           7.0   0.3836334953   3.0426284041  -1.2301372145
 N           7.0  -1.7946958805   2.4871052153  -1.2295490432
 C           6.0  -0.6374610686   2.4979070654  -2.0036169784
 O           8.0  -0.5382337251   2.1083054884  -3.1462732774
 C           6.0   1.7686793700   2.9804046833  -1.6636899322
 H           1.0   2.2991131954   3.8745542499  -1.3192747803
 H           1.0   1.7592862997   2.9649031710  -2.7576037562
 H           1.0   0.0547987129   4.6898547189   0.0090723220
 H           1.0  -2.2923841603   4.0930957456   0.0081377396
 N           7.0   0.3844663110   3.0436903238   1.2575034597
 N           7.0  -1.7964149623   2.4906539933   1.2587456768
 C           6.0  -0.6362003673   2.4946040421   2.0388644773
 O           8.0  -0.5469954515   2.1461059015   3.1906881107
 C           6.0   1.7690250776   2.9802651045   1.6879978881
 H           1.0   2.2995896366   3.8756695185   1.3422631624
 H           1.0   1.7575264745   2.9627853967   2.7808683508
 CL         17.0   0.0000000000   0.0000000000  -1.49
 C           6.0   0.0000000000   0.0000000000   0.14
 N           7.0   0.0000000000   0.0000000000   1.31
 $END
