 $CONTRL EXETYP=RUN $END
 $CONTRL SCFTYP=RHF DFTTYP=B97D RUNTYP=OPTIMIZE MAXIT=200 ICHARG=-1
         D5=.T. INTTYP=HONDO ICUT=11 ITOL=30 $END
 $SYSTEM TIMLIM=3600 MWORDS=80 $END
 $SCF    DIRSCF=.T. NCONV=7 $END
 $BASIS  EXTFIL=.T. GBASIS=TZVP $END
 $DFTD   VERSN=4 $END
 $SMP    HTTFIX=.F. CALL64=.T. $END
 $P2P    P2P=.T. XDLB=.T. $END
 $STATPT OPTTOL=0.0001 NSTEP=100 $END
 $DATA 
CN- axial in Q4 DFT-D4/def2TZVP & spherical basis functions. C4 Geom opt
CN 4

 C           6.0  -1.6341944439   3.2100889309  -0.0053651763
 C           6.0  -0.1024203050   3.5995529139  -0.0054278972
 N           7.0   0.3837516316   3.0389657111  -1.2438966342
 N           7.0  -1.7931570058   2.4842272108  -1.2438049403
 C           6.0  -0.6331849782   2.4811904742  -2.0198629565
 O           8.0  -0.5366570282   2.1038230568  -3.1633791811
 C           6.0   1.7666271545   2.9770316881  -1.6726865819
 H           1.0   2.2958359516   3.8692104844  -1.3181914890
 H           1.0   1.7556697253   2.9594139001  -2.7658676585
 H           1.0   0.0489425456   4.6896985895  -0.0072267530
 H           1.0  -2.2876943217   4.0955550309  -0.0086330754
 N           7.0   0.3832370404   3.0477620261   1.2411838694
 N           7.0  -1.7975647657   2.4962086183   1.2432092435
 C           6.0  -0.6345474095   2.4885691348   2.0114668266
 O           8.0  -0.5309351738   2.0853086343   3.1480355868
 C           6.0   1.7689964823   2.9799364123   1.6691083646
 H           1.0   2.2974632019   3.8720306019   1.3142183610
 H           1.0   1.7574683673   2.9630026177   2.7619609969
 C           6.0   0.0000000000   0.0000000000   0.00
 N           7.0   0.0000000000   0.0000000000   1.17
 $END
