 $CONTRL EXETYP=RUN $END
 $CONTRL SCFTYP=RHF DFTTYP=B97D RUNTYP=OPTIMIZE MAXIT=200 ICHARG=0
         D5=.T. INTTYP=HONDO ICUT=11 ITOL=30 $END
 $SYSTEM TIMLIM=3600 MWORDS=80 $END
 $SCF    DIRSCF=.T. NCONV=7 $END
 $BASIS  EXTFIL=.T. GBASIS=TZVP $END
 $DFTD   VERSN=4 $END
 $SMP    HTTFIX=.F. CALL64=.T. $END
 $P2P    P2P=.T. XDLB=.T. $END
 $STATPT OPTTOL=0.0001 NSTEP=100 $END
 $DATA 
F-@Q4.H(1,0)1+ DFT-D4/def2TZVP & spherical basis functions. C1 geom opt
C1
 C           6.0  -3.2267819661  -1.6253317933   0.0384026631
 C           6.0   1.6299478189  -3.2160227612   0.0201547180
 C           6.0   3.2141751345   1.6387392732   0.0200061923
 C           6.0  -1.6427170504   3.2169489100   0.0292240962
 C           6.0  -3.6140984521  -0.1088314448   0.0497488366
 C           6.0   0.0963331078  -3.6086740201   0.0248028730
 C           6.0   3.6049711939   0.1046558360   0.0193626195
 C           6.0  -0.1129162051   3.6040944476   0.0209567323
 N           7.0  -3.0434370509   0.3896925974  -1.2385691000
 N           7.0  -0.3808943284  -3.0400196879  -1.2211001550
 N           7.0   3.0414732435  -0.3828160163  -1.2253665595
 N           7.0   0.3746399557   3.0424256343  -1.2434396735
 N           7.0  -2.4874261148  -1.7667249984  -1.2833196529
 N           7.0   1.7889664158  -2.4831881413  -1.2259448710
 N           7.0   2.4825721054   1.7890293215  -1.2218881494
 N           7.0  -1.7935005822   2.4844082009  -1.2210165242
 C           6.0  -2.4375612008  -0.5827635302  -1.9651528969
 C           6.0   0.6376682350  -2.4722032860  -1.9942057498
 C           6.0   2.4743413700   0.6301465741  -1.9951641181
 C           6.0  -0.6325276117   2.4674586307  -1.9764192227
 O           8.0  -1.9909788244  -0.4648498983  -3.1356322053
 O           8.0   0.5144578278  -2.0686702503  -3.1369858309
 O           8.0   2.0674336818   0.5297470645  -3.1360669560
 O           8.0  -0.5625781715   1.9999260555  -3.1349495427
 C           6.0  -2.9696489335   1.7986294680  -1.6583282713
 C           6.0  -1.7358652480  -3.0008632250  -1.6731695118
 C           6.0   2.9828895768  -1.7639010579  -1.6575051489
 C           6.0   1.7798031033   2.9724400502  -1.6614320693
 H           1.0  -3.8699864387   2.2926434888  -1.3059635428
 H           1.0  -2.3038127737  -3.8605931172  -1.3051742590
 H           1.0   3.8697906773  -2.2994117980  -1.3045610304
 H           1.0   2.2935365830   3.8708892639  -1.3050570898
 H           1.0  -2.9805775780   1.7797283471  -2.7550201061
 H           1.0  -1.7515254812  -2.9802233339  -2.7636094185
 H           1.0   2.9664475281  -1.7595709688  -2.7507099444
 H           1.0   1.7667031552   2.9650279038  -2.7553431237
 H           1.0  -4.6918873854   0.0637153830   0.0174366588
 H           1.0  -0.0578566897  -4.6947220893   0.0286185451
 H           1.0   4.6904913752  -0.0567824848   0.0292006399
 H           1.0   0.0576094804   4.6884876547   0.0243038823
 H           1.0  -4.0880665616  -2.3001954964   0.0111437416
 H           1.0   2.2944245739  -4.0898727798   0.0239662204
 H           1.0   4.0926337616   2.2971018785   0.0249557148
 H           1.0  -2.3002047882   4.0934645796   0.0213189504
 N           7.0  -3.0122787289   0.3917238116   1.2389225525
 N           7.0  -0.3863984357  -3.0164342062   1.2392308432
 N           7.0   3.0155743456  -0.3856096958   1.2392553594
 N           7.0   0.3871103951   3.0126689309   1.2371361667
 N           7.0  -2.4607985223  -1.7881263517   1.2325206474
 N           7.0   1.7840595110  -2.4677481544   1.2419531994
 N           7.0   2.4688641856   1.7844049234   1.2424440591
 N           7.0  -1.7871288144   2.4653562844   1.2426562555
 C           6.0  -2.3329147811  -0.5956948348   1.9513457813
 C           6.0   0.6008416719  -2.3382862294   1.9579681878
 C           6.0   2.3400837434   0.5968986402   1.9575885252
 C           6.0  -0.5926279779   2.3383848949   1.9559670913
 O           8.0  -1.8050141814  -0.4615886173   3.0100140561
 O           8.0   0.4559199737  -1.8004830611   3.0139399419
 O           8.0   1.7988597640   0.4612124943   3.0138176841
 O           8.0  -0.4643675198   1.8002736600   3.0125084980
 C           6.0  -2.9717524897   1.7748727281   1.6708962361
 C           6.0  -1.7554054431  -2.9824183593   1.6698379042
 C           6.0   2.9736292747  -1.7614566826   1.6715885121
 C           6.0   1.7709382777   2.9693297077   1.6709997204
 H           1.0  -3.8625064473   2.2920880104   1.3060229807
 H           1.0  -2.2903766214  -3.8622721901   1.3055499480
 H           1.0   3.8573353775  -2.2888469352   1.3047258149
 H           1.0   2.2896109550   3.8588478452   1.3049427431
 H           1.0  -2.9678105737   1.7593413211   2.7608782156
 H           1.0  -1.7621251139  -2.9659057328   2.7609938000
 H           1.0   2.9681334501  -1.7610769290   2.7627399060
 H           1.0   1.7599179770   2.9682768862   2.7620362364
 H           1.0  -1.5038337202   0.4090994576  -3.3518492273
 F           9.0   0.000000       0.000000       0.000000
$END
