 $CONTRL EXETYP=RUN $END
 $CONTRL SCFTYP=RHF DFTTYP=B97D RUNTYP=OPTIMIZE MAXIT=200 ICHARG=0
         D5=.T. INTTYP=HONDO ICUT=11 ITOL=30 $END
 $SYSTEM TIMLIM=3600 MWORDS=80 $END
 $SCF    DIRSCF=.T. NCONV=7 $END
 $BASIS  EXTFIL=.T. GBASIS=TZVP $END
 $DFTD   VERSN=4 $END
 $SMP    HTTFIX=.F. CALL64=.T. $END
 $P2P    P2P=.T. XDLB=.T. $END
 $STATPT OPTTOL=0.0001 NSTEP=100 $END
 $DATA 
F2 axial in Q4 DFT-D4/def2TZVP & spherical basis functions. C4h Geom opt
CNH 4

 C           6.0  -1.6313716084   3.2013462831   0.0000000000
 C           6.0  -0.1009141703   3.5914082467   0.0000000000
 N           7.0   0.3843565485   3.0335030586  -1.2419896695
 N           7.0  -1.7906923641   2.4797158383  -1.2424980544
 C           6.0  -0.6367412061   2.4969735452  -2.0285515667
 O           8.0  -0.5463175794   2.1445678815  -3.1799603162
 C           6.0   1.7665491641   2.9762820371  -1.6732699814
 H           1.0   2.2958560832   3.8682445509  -1.3183884863
 H           1.0   1.7553308268   2.9588052983  -2.7664896642
 H           1.0   0.0502026085   4.6817397486   0.0000000000
 H           1.0  -2.2856092970   4.0865803079   0.0000000000
 F           9.0   0.0000000000   0.0000000000   0.72
 $END
