 $CONTRL EXETYP=RUN $END
 $CONTRL SCFTYP=RHF DFTTYP=B97D RUNTYP=ENERGY MAXIT=100 ICHARG=0
         D5=.T. INTTYP=HONDO ICUT=11 ITOL=30 $END
 $SYSTEM TIMLIM=3600 MWORDS=80 $END
 $SCF    DIRSCF=.T. NCONV=7 $END
 $BASIS  EXTFIL=.T. GBASIS=TZVP $END
 $DFTD   VERSN=4 $END
 $SMP    HTTFIX=.F. CALL64=.T. $END
 $P2P    P2P=.T. XDLB=.T. $END
 $STATPT OPTTOL=0.0001 NSTEP=100 $END
 $DATA 
HBr axial in Q4 DFT-D4/def2TZVP with spherical basis functions. C4. Q4 ghost
CN 4

 C          -6.0  -1.6360609634   3.2152924719  -0.0034440307
 C          -6.0  -0.1030736399   3.6046908936  -0.0034890103
 N          -7.0   0.3829017337   3.0487053106  -1.2455624587
 N          -7.0  -1.7961543491   2.4897372300  -1.2434054489
 C          -6.0  -0.6358885117   2.4903856568  -2.0201829107
 O          -8.0  -0.5391176263   2.1102086047  -3.1628986928
 C          -6.0   1.7680462799   2.9799277642  -1.6719858663
 H          -1.0   2.2979700826   3.8720641974  -1.3186460760
 H          -1.0   1.7571477186   2.9609210011  -2.7650167835
 H          -1.0   0.0475699489   4.6947858315  -0.0027574147
 H          -1.0  -2.2883763899   4.1015298324  -0.0074521093
 N          -7.0   0.3833193835   3.0508648541   1.2430449173
 N          -7.0  -1.8006061710   2.5033764686   1.2469739371
 C          -6.0  -0.6367221574   2.4969092829   2.0154539233
 O          -8.0  -0.5338850585   2.0963217184   3.1529387154
 C          -6.0   1.7702011750   2.9815431971   1.6712622254
 H          -1.0   2.2979556672   3.8745794038   1.3179470381
 H          -1.0   1.7573441939   2.9637077590   2.7640012553
 BR         35.0   0.0000000000   0.0000000000   0.0743160870
 H           1.0   0.0000000000   0.0000000000   1.5085590732
 $END