 $CONTRL EXETYP=RUN $END
 $CONTRL SCFTYP=RHF DFTTYP=B97D RUNTYP=OPTIMIZE MAXIT=200 ICHARG=0
         D5=.T. INTTYP=HONDO ICUT=11 ITOL=30 $END
 $SYSTEM TIMLIM=3600 MWORDS=80 $END
 $SCF    DIRSCF=.T. NCONV=7 $END
 $BASIS  EXTFIL=.T. GBASIS=TZVP $END
 $DFTD   VERSN=4 $END
 $SMP    HTTFIX=.F. CALL64=.T. $END
 $P2P    P2P=.T. XDLB=.T. $END
 $STATPT OPTTOL=0.0001 NSTEP=100 $END
 $DATA 
HCN axial in Q4 DFT-D4/def2TZVP & spherical basis functions. C4 Geom opt
CN 4

 C           6.0  -1.6270090463   3.1886607253   0.0107363401
 C           6.0  -0.0982836171   3.5767046631   0.0107498061
 N           7.0   0.3821909883   3.0396359705  -1.2390293159
 N           7.0  -1.7924073829   2.4865392504  -1.2393233795
 C           6.0  -0.6336301255   2.4830389104  -2.0155631239
 O           8.0  -0.5533165233   2.1692234736  -3.1815213209
 C           6.0   1.7608721520   2.9671095524  -1.6629644151
 H           1.0   2.2915601219   3.8623392472  -1.3107295338
 H           1.0   1.7464153288   2.9438828780  -2.7566504321
 H           1.0   0.0493800307   4.6712838722   0.0103449506
 H           1.0  -2.2786126578   4.0800559260   0.0087960505
 N           7.0   0.3825666983   3.0390833308   1.2592875740
 N           7.0  -1.7933653203   2.4893032147   1.2612998766
 C           6.0  -0.6333610939   2.4831534088   2.0358609636
 O           8.0  -0.5520445701   2.1661333436   3.2006369417
 C           6.0   1.7615996347   2.9677962896   1.6827166719
 H           1.0   2.2914910791   3.8631534816   1.3291913362
 H           1.0   1.7479283022   2.9471793428   2.7764814570
 H           1.0   0.0000000000   0.0000000000  -1.5
 C           6.0   0.0000000000   0.0000000000  -0.49
 N           7.0   0.0000000000   0.0000000000   0.68
 $END
