 $CONTRL EXETYP=RUN $END
 $CONTRL SCFTYP=RHF DFTTYP=B97D RUNTYP=ENERGY
         D5=.T. INTTYP=HONDO ICUT=11 ITOL=30 $END
 $SYSTEM TIMLIM=3600 MWORDS=60 $END
 $SCF    DIRSCF=.T. NCONV=9 $END
 $BASIS  EXTFIL=.T. GBASIS=TZVP $END
 $DFTD   VERSN=4 $END
 $SMP    HTTFIX=.F. CALL64=.T. $END
 $P2P    P2P=.T. XDLB=.T. $END
 $STATPT OPTTOL=0.00001 NSTEP=100 $END
 $DATA 
He in Q4 DFT-D4/def2TZVP & spherical basis functions. C4h. Q4 ghost
CNH 4

 C          -6.0  -1.6303412513   3.1985911421   0.0000000000
 C          -6.0  -0.1005611066   3.5887998968   0.0000000000
 N          -7.0   0.3847383094   3.0300329796  -1.2405055892
 N          -7.0  -1.7889663826   2.4757812858  -1.2408247408
 C          -6.0  -0.6327954527   2.4818122027  -2.0221233740
 O          -8.0  -0.5397049305   2.1187199019  -3.1705371070
 C          -6.0   1.7658581924   2.9751106068  -1.6722658714
 H          -1.0   2.2951743606   3.8665957801  -1.3165473770
 H          -1.0   1.7554414751   2.9588965346  -2.7655073652
 H          -1.0   0.0513720717   4.6789884729   0.0000000000
 H          -1.0  -2.2856206648   4.0830239972   0.0000000000
 HE          2.0   0.0000000000   0.0000000000   0.0000000000
 $END
