 $CONTRL EXETYP=RUN $END
 $CONTRL SCFTYP=RHF DFTTYP=B97D RUNTYP=ENERGY MAXIT=100 ICHARG=0
         D5=.T. INTTYP=HONDO ICUT=11 ITOL=30 $END
 $SYSTEM TIMLIM=3600 MWORDS=80 $END
 $SCF    DIRSCF=.T. NCONV=7 $END
 $BASIS  EXTFIL=.T. GBASIS=TZVP $END
 $DFTD   VERSN=4 $END
 $SMP    HTTFIX=.F. CALL64=.T. $END
 $P2P    P2P=.T. XDLB=.T. $END
 $STATPT OPTTOL=0.0001 NSTEP=100 $END
 $DATA 
HF axial in Q4 DFT-D4/def2TZVP with spherical basis functions. C4. Q4 ghost
CN 4

 C          -6.0  -1.6319233590   3.2034321207  -0.0322495068
 C          -6.0  -0.1024178556   3.5972693316  -0.0317099135
 N          -7.0   0.3804988170   3.0553290441  -1.2784060717
 N          -7.0  -1.7793096337   2.4488947902  -1.2541330288
 C          -6.0  -0.6305522039   2.4729647424  -2.0447604631
 O          -8.0  -0.5383017102   2.1041465544  -3.1912171954
 C          -6.0   1.7629355414   2.9745178856  -1.6985396826
 H          -1.0   2.3037369531   3.8601363839  -1.3451287983
 H          -1.0   1.7592289670   2.9514399092  -2.7919305702
 H          -1.0   0.0465761764   4.6876968569  -0.0188592397
 H          -1.0  -2.2887314742   4.0863840114  -0.0578891899
 N          -7.0   0.3866591121   3.0273450463   1.2051587683
 N          -7.0  -1.8010369091   2.5119725030   1.2262695907
 C          -6.0  -0.6319196920   2.4849759338   1.9813655992
 O          -8.0  -0.5268204758   2.0848945334   3.1210288539
 C          -6.0   1.7695159460   2.9763766751   1.6430969835
 H          -1.0   2.2917104742   3.8724328908   1.2891741979
 H          -1.0   1.7516181587   2.9630582104   2.7358949470
 F           9.0   0.0000000000   0.0000000000   1.0747673560
 H           1.0   0.0000000000   0.0000000000   2.0165715222
 $END