 $CONTRL EXETYP=RUN $END
 $CONTRL SCFTYP=RHF DFTTYP=B97D RUNTYP=OPTIMIZE MAXIT=100 ICHARG=0
         D5=.T. INTTYP=HONDO ICUT=11 ITOL=30 $END
 $SYSTEM TIMLIM=3600 MWORDS=80 $END
 $SCF    DIRSCF=.T. NCONV=7 $END
 $BASIS  EXTFIL=.T. GBASIS=TZVP $END
 $DFTD   VERSN=4 $END
 $SMP    HTTFIX=.F. CALL64=.T. $END
 $P2P    P2P=.T. XDLB=.T. $END
 $STATPT OPTTOL=0.0001 NSTEP=100 $END
 $DATA 
HF axial in Q4 DFT-D4/def2TZVP with spherical basis functions. C4 Geom opt
CN 4

C     6.0     0.00000    -3.88080    -0.00000
C     6.0    -2.28647    -3.13500    -0.00000
N     7.0    -2.40916     2.03074     1.23885
N     7.0    -2.03074    -2.40916    -1.23885
N     7.0    -3.14449    -0.22117     1.23879
N     7.0     0.22117    -3.14449    -1.23879
C     6.0    -2.51316     0.81871     1.93259
C     6.0    -0.81871    -2.51316    -1.93259
O     8.0    -2.08867     0.67926     3.06340
O     8.0    -0.67926    -2.08867    -3.06340
C     6.0    -1.55960     3.06801     1.80533
C     6.0    -3.06801    -1.55960    -1.80533
C     6.0    -1.43109    -4.39012    -0.00000
H     1.0    -4.98608     1.62591    -0.89399
H     1.0    -1.62591    -4.98608     0.89399
H     1.0    -2.05241     4.03587     1.64987
H     1.0    -4.03587    -2.05241    -1.64987
H     1.0    -1.45268     2.86129     2.86982
H     1.0    -2.86129    -1.45268    -2.86982
H     1.0    -3.35427    -3.39127    -0.00000
H     1.0     0.71119    -4.71767    -0.00000
F     9.0     0.00000     0.00000     0.00000
H     1.0     0.00000     0.00000     0.92
 $END