#libdir  /Applications/Firefly/ECP/
 $CONTRL EXETYP=RUN $END
 $CONTRL SCFTYP=RHF DFTTYP=B97D RUNTYP=OPTIMIZE MAXIT=100 ICHARG=0
         ECP=READ D5=.T. INTTYP=HONDO ICUT=11 ITOL=30 $END
 $SYSTEM TIMLIM=3600 MWORDS=80 $END
 $SCF    DIRSCF=.T. NCONV=7 $END
 $BASIS  EXTFIL=.T. GBASIS=TZVP $END
 $DFTD   VERSN=4 $END
 $SMP    HTTFIX=.F. CALL64=.T. $END
 $P2P    P2P=.T. XDLB=.T. $END
 $STATPT OPTTOL=0.0001 NSTEP=100 $END
 $DATA
HI axial in Q4 DFT-D4/def2TZVP with spherical basis functions & I ECP. C4 Geom opt
CN 4

 C           6.0  -1.6239168923   3.1806868484   0.0000000000
 C           6.0  -0.0974705754   3.5696051840   0.0000000000
 N           7.0   0.3826700290   3.0323358520  -1.2475168194
 N           7.0  -1.7887690951   2.4797925903  -1.2481879579
 C           6.0  -0.6271532545   2.4593886046  -2.0154215795
 O           8.0  -0.5397758070   2.1185770139  -3.1740037454
 C           6.0   1.7597081461   2.9647970623  -1.6704476694
 H           1.0   2.2899319933   3.8583798406  -1.3132061214
 H           1.0   1.7490019059   2.9484032855  -2.7644457064
 H           1.0   0.0519957739   4.6638009963   0.0000000000
 H           1.0  -2.2784707700   4.0701870982   0.0000000000
 N           7.0   0.3826700290   3.0323358520   1.2475168194
 N           7.0  -1.7887690951   2.4797925903   1.2481879579
 C           6.0  -0.6271532545   2.4593886046   2.0154215795
 O           8.0  -0.5397758070   2.1185770139   3.1740037454
 C           6.0   1.7597081461   2.9647970623   1.6704476694
 H           1.0   2.2899319933   3.8583798406   1.3132061214
 H           1.0   1.7490019059   2.9484032855   2.7644457064
 H           1.0   0.00000        0.00000        1.61
 I          53.0   0.00000        0.00000        0.00000
 $END
 $ECP 
C-ECP NONE
C-ECP
C-ECP
C-ECP
C-ECP
C-ECP
C-ECP
C-ECP
N-ECP NONE
N-ECP
N-ECP
N-ECP
N-ECP
N-ECP
N-ECP
N-ECP
C-ECP
C-ECP
C-ECP
C-ECP
O-ECP NONE
O-ECP
O-ECP
O-ECP
C-ECP
C-ECP
C-ECP
C-ECP
H-ECP NONE
H-ECP
H-ECP
H-ECP
H-ECP
H-ECP
H-ECP
H-ECP
H-ECP
H-ECP
H-ECP
H-ECP
H-ECP
H-ECP
H-ECP
H-ECP
N-ECP
N-ECP
N-ECP
N-ECP
N-ECP
N-ECP
N-ECP
N-ECP
C-ECP
C-ECP
C-ECP
C-ECP
O-ECP
O-ECP
O-ECP
O-ECP
C-ECP
C-ECP
C-ECP
C-ECP
H-ECP
H-ECP
H-ECP
H-ECP
H-ECP
H-ECP
H-ECP
H-ECP
H-ECP
@I_def2_SVP.ecp
 $END