 $CONTRL EXETYP=RUN $END
 $CONTRL SCFTYP=RHF DFTTYP=B97D RUNTYP=ENERGY
         D5=.T. INTTYP=HONDO ICUT=11 ITOL=30 $END
 $SYSTEM TIMLIM=3600 MWORDS=60 $END
 $SCF    DIRSCF=.T. NCONV=7 $END
 $BASIS  EXTFIL=.T. GBASIS=TZVP $END
 $DFTD   VERSN=4 $END
 $SMP    HTTFIX=.F. CALL64=.T. $END
 $P2P    P2P=.T. XDLB=.T. $END
 $STATPT OPTTOL=0.0001 NSTEP=100 $END
 $DATA 
Kr in Q4 DFT-D4/def2TZVP & spherical basis functions. C4h. Q4 ghost
CNH 4

 C          -6.0  -1.6341703901   3.2087997366   0.0000000000
 C          -6.0  -0.1020187769   3.5993202921   0.0000000000
 N          -7.0   0.3839732089   3.0433671025  -1.2437707615
 N          -7.0  -1.7949382103   2.4884434516  -1.2441796848
 C          -6.0  -0.6373691889   2.4990787872  -2.0260179543
 O          -8.0  -0.5437143603   2.1335469059  -3.1735062290
 C          -6.0   1.7686081307   2.9797168432  -1.6728985598
 H          -1.0   2.2981022510   3.8717999476  -1.3189428488
 H          -1.0   1.7574758187   2.9622825572  -2.7660011724
 H          -1.0   0.0484987130   4.6895407129   0.0000000000
 H          -1.0  -2.2879635487   4.0941012546   0.0000000000
 KR         36.0   0.0000000000   0.0000000000   0.0000000000
 $END
