 $CONTRL EXETYP=RUN $END
 $CONTRL SCFTYP=RHF DFTTYP=B97D RUNTYP=OPTIMIZE
         D5=.T. INTTYP=HONDO ICUT=11 ITOL=30 $END
 $SYSTEM TIMLIM=3600 MWORDS=60 $END
 $SCF    DIRSCF=.T. NCONV=7 $END
 $BASIS  EXTFIL=.T. GBASIS=TZVP $END
 $DFTD   VERSN=4 $END
 $SMP    HTTFIX=.F. CALL64=.T. $END
 $P2P    P2P=.T. XDLB=.T. $END
 $STATPT OPTTOL=0.0001 NSTEP=100 $END
 $DATA 
Kr in Q4 DFT-D4/def2TZVP & spherical basis functions. C4h Geom opt
CNH 4

 C           6.0  -1.6376090785   3.2188188631   0.0000000000
 C           6.0  -0.1034833023   3.6091230235   0.0000000000
 N           7.0   0.3832538690   3.0553713504  -1.2466318552
 N           7.0  -1.8005204982   2.5001283286  -1.2469739369
 C           6.0  -0.6423993636   2.5177365922  -2.0309050349
 O           8.0  -0.5501930963   2.1564449223  -3.1797902318
 C           6.0   1.7714122577   2.9844944675  -1.6732595339
 H           1.0   2.3006030145   3.8768711435  -1.3197431157
 H           1.0   1.7593926482   2.9653906523  -2.7661480443
 H           1.0   0.0447873617   4.6994567790   0.0000000000
 H           1.0  -2.2886579917   4.1058634640   0.0000000000
 KR         36.0   0.0000000000   0.0000000000   0.0000000000
 $END
