 $CONTRL EXETYP=RUN $END
 $CONTRL SCFTYP=RHF DFTTYP=B97D RUNTYP=OPTIMIZE
         INTTYP=HONDO ICUT=11 ITOL=30 $END
 $SYSTEM TIMLIM=3600 MWORDS=130 $END
 $SCF    DIRSCF=.T. NCONV=6 $END
 $BASIS  EXTFIL=.T. GBASIS=TZVP $END
 $DFTD   VERSN=4 $END
 $SMP    HTTFIX=.F. CALL64=.T. $END
 $P2P    P2P=.T. XDLB=.T. $END
 $STATPT DXMAX=0.1 TRUPD=.F. FMAXT=100 OPTTOL=0.0001 NSTEP=100 $END
 $DATA 
Kr@Q4 DFT-D4/def2TZVP geometry optimisation
C1
 C           6.0  -1.7465304685   0.0887253170  -1.2810586038
 C           6.0  -0.1889309639   0.1802222141  -1.4877530293
 N           7.0  -1.9706515980   0.9233540791  -0.1178509944
 N           7.0   0.2069751598   1.2331041769  -0.5854124878
 C           6.0  -0.8612575406   1.7182094341   0.1756004808
 N           7.0  -1.9885364706  -1.3302432149  -1.1620871578
 N           7.0   0.2543425685  -1.1696515311  -1.2062376146
 C           6.0  -0.8035664251  -2.0784969561  -1.1921813028
 C           6.0  -3.2691474075   1.2345358788   0.4564625099
 C           6.0  -3.1862966185  -1.9206736649  -0.6041976175
 H           1.0  -2.3060828965   0.4885856694  -2.1404828671
 H           1.0   0.0815194967   0.4541309338  -2.5190154594
 N           7.0  -3.5978462449   0.4581646330   1.6330316964
 N           7.0  -3.2525862052  -1.8712211763   0.8470073011
 C           6.0  -4.0290349456  -0.9193703857   1.6158113623
 C           6.0  -3.8030547738  -1.3938217052   3.0987809410
 C           6.0  -3.0754243168   0.8385612232   2.8769557360
 C           6.0  -2.8934270945  -2.9852383267   1.6071408771
 N           7.0  -3.1634433349  -2.6771372949   2.9450156030
 N           7.0  -3.0356200555  -0.3066679704   3.6727213896
 O           8.0  -2.4651365689  -4.0346167227   1.1901607261
 O           8.0  -2.7599355310   1.9568949057   3.2049557662
 H           1.0  -4.0466249349   1.0919297632  -0.3026665482
 H           1.0  -3.2437033798   2.2809554855   0.7724794358
 H           1.0  -3.1764900748  -2.9748382347  -0.8942016946
 H           1.0  -4.0679082822  -1.4243694019  -1.0255369654
 H           1.0  -5.0866990472  -0.9729692327   1.3160501966
 H           1.0  -4.7487750274  -1.5139293847   3.6490377832
 C           6.0  -2.4958710867  -3.4094993473   4.0010148061
 C           6.0  -2.5490123515  -0.2419015836   5.0379555619
 O           8.0  -0.7219759647  -3.2822803406  -1.2387167417
 O           8.0  -0.8331389707   2.6695115313   0.9188354695
 C           6.0   1.6286480913  -1.6318606103  -1.2276146315
 C           6.0   1.5688074676   1.5407787487  -0.1988621296
 N           7.0   2.2692897236  -1.6338813606   0.0711487767
 N           7.0   2.0819444965   0.7080025612   0.8715355755
 C           6.0   2.8780016146  -0.4907018028   0.7047957933
 C           6.0   3.1041176427  -0.9718583415   2.1853318098
 C           6.0   2.0868743735   1.1629884694   2.1902812335
 N           7.0   2.3688171701  -2.2194870413   2.2394626499
 N           7.0   2.6273029270   0.1368650228   2.9776428593
 O           8.0   1.7330578708   2.2496586017   2.5798487352
 O           8.0   1.6380741237  -3.7871969801   0.6818758286
 C           6.0   2.0298964894  -2.6807622256   0.9665342990
 H           1.0   1.6097595706  -2.6678727611  -1.5764750387
 H           1.0   2.2178222629  -1.0160251331  -1.9168639032
 H           1.0   2.2179979524   1.4585177743  -1.0781694569
 H           1.0   1.5697738840   2.5697346491   0.1711189748
 H           1.0   3.8220357063  -0.2429875981   0.1956580459
 H           1.0   4.1662329316  -1.1558797330   2.4077306719
 C           6.0   2.3202729648  -3.1162653970   3.3820792111
 C           6.0   2.2864745043   0.0594864224   4.3823166348
 N           7.0   1.1090126534  -3.0091845054   4.1676506997
 N           7.0  -1.1387285657  -2.9669485879   4.2588880879
 C           6.0  -0.0514590480  -3.6640585314   3.7313148005
 N           7.0   1.0055156698  -0.5737258137   4.6497704188
 N           7.0  -1.1741682914  -0.6695440421   5.1955065750
 C           6.0  -0.1309559920   0.2051088339   4.8732581861
 C           6.0  -0.7360519804  -2.0393800493   5.2966853216
 C           6.0   0.8211649193  -1.9406715774   5.0956084615
 O           8.0  -0.0937180941  -4.6662168054   3.0593826375
 O           8.0  -0.1972646481   1.4101585666   4.8334670257
 H           1.0  -2.4351009958  -4.4515656660   3.6755068100
 H           1.0  -3.0912846388  -3.3378078845   4.9183446548
 H           1.0  -3.1892182792  -0.8475581167   5.6896542269
 H           1.0  -2.5924103596   0.8073512365   5.3422127123
 H           1.0   3.1885041814  -2.9334674397   4.0251602268
 H           1.0   2.3498618034  -4.1389523044   2.9965018037
 H           1.0   2.2217623031   1.0894385289   4.7437700870
 H           1.0   3.0772754325  -0.4770807342   4.9191209426
 H           1.0  -1.0070261421  -2.4439969935   6.2839478327
 H           1.0   1.3743475782  -2.1051315308   6.0328737705
 KR         36.0  -0.4450536988  -0.8237187194   1.9429878709
 $END
