 $CONTRL EXETYP=RUN $END
 $CONTRL SCFTYP=UHF MULT=4 DFTTYP=B97D RUNTYP=OPTIMIZE MAXIT=200 ICHARG=0
         D5=.T. INTTYP=HONDO ICUT=11 ITOL=30 $END
 $SYSTEM TIMLIM=3600 MWORDS=80 $END
 $SCF    DIRSCF=.T. NCONV=6 $END
 $BASIS  EXTFIL=.T. GBASIS=TZVP $END
 $DFTD   VERSN=4 $END
 $SMP    HTTFIX=.F. CALL64=.T. $END
 $P2P    P2P=.T. XDLB=.T. $END
 $STATPT OPTTOL=0.0001 NSTEP=100 $END
 $DATA 
Li (MULT=4) in Q4 DFT-D4/def2TZVP & spherical basis functions. C4 Geom opt
CN 4

C     6.0    -0.00000     3.56985    -0.00000
C     6.0     1.51602     3.23192    -0.00000
N     7.0     2.48348    -1.69470     1.21207
N     7.0     1.69470     2.48348    -1.21208
N     7.0     2.96817     0.47962     1.21209
N     7.0    -0.47962     2.96817    -1.21209
C     6.0     2.42203    -0.53983     1.97906
C     6.0     0.53983     2.42203    -1.97906
O     8.0     2.09303    -0.46650     3.13121
O     8.0     0.46650     2.09303    -3.13121
C     6.0     1.84595    -2.90483     1.65218
C     6.0     2.90483     1.84595    -1.65218
H     1.0     2.40436    -3.78352     1.30926
H     1.0     3.78352     2.40436    -1.30926
H     1.0     1.81158    -2.85073     2.74928
H     1.0     2.85073     1.81157    -2.74928
H     1.0     2.16314     4.13200    -0.00000
H     1.0    -0.20357     4.65955    -0.00000
Li    3.0     0.00000     0.00000     0.00000
 $END
