 $CONTRL EXETYP=RUN $END
 $CONTRL SCFTYP=RHF DFTTYP=B97D RUNTYP=OPTIMIZE MAXIT=100
         D5=.T. INTTYP=HONDO ICUT=11 ITOL=30 $END
 $SYSTEM TIMLIM=3600 MWORDS=80 $END
 $SCF    DIRSCF=.T. NCONV=7 $END
 $BASIS  EXTFIL=.T. GBASIS=TZVP $END
 $DFTD   VERSN=4 $END
 $SMP    HTTFIX=.F. CALL64=.T. $END
 $P2P    P2P=.T. XDLB=.T. $END
 $STATPT OPTTOL=0.0001 NSTEP=100 $END
 $DATA 
Me8Q4 DFT-D4/def2TZVP & spherical basis functions. Geom opt with C4h symmetry
CNH 4

 C           6.0  -1.6924112761   3.2053364349   0.0000000000
 C           6.0  -0.1914450659   3.7450900476   0.0000000000
 N           7.0   0.3573327714   3.2409237412  -1.3091870594
 N           7.0  -1.7784309565   2.3161235912  -1.1993971487
 C           6.0  -0.6520169353   2.5327408698  -2.0576186371
 O           8.0  -0.5837830102   2.2391373694  -3.2329692196
 C           6.0   1.7834002173   3.0793467483  -1.6486481290
 H           1.0   2.3636517334   3.9078271046  -1.1794682052
 H           1.0   1.8680593313   3.1628217573  -2.7530091868
 C           6.0  -2.7742608714   4.2869186904   0.0000000000
 C           6.0  -0.0564323897   5.2748775008   0.0000000000
 H           1.0  -2.7084013388   4.9326565252   0.8858277681
 H           1.0  -3.7777728576   3.8173831056   0.0000000000
 H           1.0  -0.5253734480   5.7261605244   0.8857169105
 H           1.0   0.9995401589   5.5834298226   0.0000000000
 $END
