 $CONTRL EXETYP=RUN $END
 $CONTRL SCFTYP=RHF DFTTYP=B97D RUNTYP=OPTIMIZE MAXIT=200 ICHARG=0
         D5=.T. INTTYP=HONDO ICUT=11 ITOL=30 $END
 $SYSTEM TIMLIM=3600 MWORDS=80 $END
 $SCF    DIRSCF=.T. NCONV=7 $END
 $BASIS  EXTFIL=.T. GBASIS=TZVP $END
 $DFTD   VERSN=4 $END
 $SMP    HTTFIX=.F. CALL64=.T. $END
 $P2P    P2P=.T. XDLB=.T. $END
 $STATPT OPTTOL=0.0001 NSTEP=100 $END
 $DATA 
N2 axial in Q4 DFT-D4/def2TZVP & spherical basis functions. C4h Geom opt
CNH 4

 C           6.0  -1.6299844295   3.1980345596   0.0000000000
 C           6.0  -0.1004547591   3.5877363490   0.0000000000
 N           7.0   0.3847969024   3.0286762814  -1.2401488803
 N           7.0  -1.7889043387   2.4754219996  -1.2408168415
 C           6.0  -0.6321317263   2.4788615321  -2.0214627888
 O           8.0  -0.5385164339   2.1141397272  -3.1692683315
 C           6.0   1.7656186033   2.9748270744  -1.6719752960
 H           1.0   2.2946128356   3.8663457130  -1.3157811298
 H           1.0   1.7552186372   2.9589528646  -2.7652951743
 H           1.0   0.0521302273   4.6779449204   0.0000000000
 H           1.0  -2.2851545377   4.0826636175   0.0000000000
 N           7.0   0.0000000000   0.0000000000   0.55
 $END
