 $CONTRL SCFTYP=RHF DFTTYP=B97D RUNTYP=OPTIMIZE
         INTTYP=HONDO ICUT=11 ITOL=30 $END
 $SYSTEM TIMLIM=3600 MWORDS=130 $END
 $SCF    DIRSCF=.T. NCONV=7 $END
 $BASIS  EXTFIL=.T. GBASIS=TZVP $END
 $DFTD   VERSN=4 $END
 $SMP    HTTFIX=.F. CALL64=.T. $END
 $P2P    P2P=.T. XDLB=.T. $END
 $STATPT OPTTOL=0.00005 NSTEP=100 $END
 $LICENSE NBOLID=1587 NBOKEY=BC142C89 $end
 $NBO FILE=Ne@Q4_opt_DFT-D4_def2TZVP.1 ARCHIVE $END
 $DATA 
Ne@Q4 DFT-D4/def2TZVP geometry optimisation
C1
C     6.0    -1.74458528     0.08684783    -1.27956629
C     6.0    -0.18846636     0.17913665    -1.48903775
N     7.0    -1.96353555     0.90727395    -0.10437691
N     7.0     0.20626487     1.24032056    -0.59631777
C     6.0    -0.85804570     1.71042991     0.18044592
N     7.0    -1.98841989    -1.33282387    -1.17686856
N     7.0     0.25624925    -1.16877317    -1.19573164
C     6.0    -0.80111098    -2.07911992    -1.20052075
C     6.0    -3.26446795     1.23027587     0.45964211
C     6.0    -3.17935824    -1.92163491    -0.60276020
H     1.0    -2.30623174     0.49797124    -2.13225341
H     1.0     0.08024047     0.44295374    -2.52323008
N     7.0    -3.60457253     0.46085563     1.63706493
N     7.0    -3.22859383    -1.86425114     0.85046101
C     6.0    -4.02040100    -0.92030168     1.61591840
C     6.0    -3.79708076    -1.39323199     3.09740973
C     6.0    -3.06855965     0.83543241     2.87795591
C     6.0    -2.90038204    -2.99067736     1.60764527
N     7.0    -3.18123317    -2.68728876     2.94566107
N     7.0    -3.00813174    -0.31639406     3.66409254
O     8.0    -2.48864818    -4.04585934     1.18885612
O     8.0    -2.76008391     1.95371926     3.21085429
H     1.0    -4.03731441     1.08748090    -0.30387926
H     1.0    -3.23427629     2.27824187     0.77006316
H     1.0    -3.17257524    -2.97753191    -0.88723612
H     1.0    -4.06578159    -1.42733634    -1.01630020
H     1.0    -5.07561255    -0.98536527     1.31048429
H     1.0    -4.74197817    -1.49326241     3.65266609
C     6.0    -2.49803495    -3.40732789     3.99995708
C     6.0    -2.54731178    -0.24538112     5.03918839
O     8.0    -0.71796548    -3.28210449    -1.25763786
O     8.0    -0.82962394     2.65952945     0.92675525
C     6.0     1.63063526    -1.63213575    -1.22877634
C     6.0     1.56674695     1.53886032    -0.19965377
N     7.0     2.27957964    -1.63740957     0.06619715
N     7.0     2.06222796     0.69911546     0.87444979
C     6.0     2.87320781    -0.48990849     0.70532697
C     6.0     3.09877372    -0.97137791     2.18383694
C     6.0     2.09390259     1.16701722     2.18874693
N     7.0     2.34254694    -2.20728350     2.24161482
N     7.0     2.64420176     0.14572492     2.97748518
O     8.0     1.75386631     2.25909567     2.57532907
O     8.0     1.62956679    -3.78306007     0.68299711
C     6.0     2.02089238    -2.67644358     0.96630037
H     1.0     1.60927558    -2.66720271    -1.58008933
H     1.0     2.21614504    -1.01563573    -1.92043507
H     1.0     2.22290778     1.45403934    -1.07363558
H     1.0     1.57216704     2.56739330     0.17120777
H     1.0     3.81541944    -0.22848828     0.20020007
H     1.0     4.15875387    -1.17171121     2.40145946
C     6.0     2.31298375    -3.11174679     3.37987471
C     6.0     2.28071165     0.06141276     4.37624311
N     7.0     1.10842276    -3.01821899     4.17658997
N     7.0    -1.14146161    -2.94892693     4.24027300
C     6.0    -0.05545661    -3.66211009     3.73039985
N     7.0     0.99426180    -0.57508868     4.61812353
N     7.0    -1.17355478    -0.66715944     5.21953058
C     6.0    -0.13386872     0.20663762     4.87767458
C     6.0    -0.73598051    -2.03858066     5.29418993
C     6.0     0.81793827    -1.93684471     5.08754158
O     8.0    -0.10038581    -4.66840887     3.06536078
O     8.0    -0.19684032     1.41224062     4.85267687
H     1.0    -2.43192840    -4.45105982     3.68121338
H     1.0    -3.08467770    -3.33480120     4.92269850
H     1.0    -3.19620991    -0.85336846     5.68000555
H     1.0    -2.59976888     0.80396330     5.34185886
H     1.0     3.18460846    -2.92195797     4.01602507
H     1.0     2.35107565    -4.13204956     2.98891497
H     1.0     2.20877957     1.08951283     4.74171019
H     1.0     3.06270361    -0.47789598     4.92322111
H     1.0    -1.00227451    -2.46211147     6.27467537
H     1.0     1.37554348    -2.08388066     6.02487230
Ne   10.0    -0.43947557    -0.80769002     1.98696756
 $END
