 $CONTRL EXETYP=RUN $END
 $CONTRL SCFTYP=RHF DFTTYP=B97D RUNTYP=OPTIMIZE
         D5=.T. INTTYP=HONDO ICUT=11 ITOL=30 $END
 $SYSTEM TIMLIM=3600 MWORDS=60 $END
 $SCF    DIRSCF=.T. NCONV=7 $END
 $BASIS  EXTFIL=.T. GBASIS=TZVP $END
 $DFTD   VERSN=4 $END
 $SMP    HTTFIX=.F. CALL64=.T. $END
 $P2P    P2P=.T. XDLB=.T. $END
 $STATPT OPTTOL=0.0001 NSTEP=100 $END
 $DATA 
Ne in Q4 DFT-D4/def2TZVP & spherical basis functions. C4h Geom opt
CNH 4

 C           6.0  -1.6322383964   3.2038401030   0.0000000000
 C           6.0  -0.1012314496   3.5937460292   0.0000000000
 N           7.0   0.3842790694   3.0364154535  -1.2422536283
 N           7.0  -1.7921930758   2.4826266962  -1.2428552410
 C           6.0  -0.6350022538   2.4897706186  -2.0238583986
 O           8.0  -0.5412062387   2.1235414652  -3.1711754765
 C           6.0   1.7671977187   2.9773806193  -1.6726184226
 H           1.0   2.2964594426   3.8694370494  -1.3181029932
 H           1.0   1.7564365949   2.9607068178  -2.7657458301
 H           1.0   0.0508213551   4.6838526838   0.0000000000
 H           1.0  -2.2869869453   4.0885634110   0.0000000000
 NE         10.0   0.0000000000   0.0000000000   0.0000000000
 $END
