 $CONTRL EXETYP=RUN $END
 $CONTRL SCFTYP=RHF DFTTYP=B97D RUNTYP=OPTIMIZE MAXIT=200 ICHARG=0
         D5=.T. INTTYP=HONDO ICUT=11 ITOL=30 $END
 $SYSTEM TIMLIM=3600 MWORDS=85 $END
 $SCF    DIRSCF=.T. NCONV=7 $END
 $BASIS  EXTFIL=.T. GBASIS=TZVP $END
 $DFTD   VERSN=4 $END
 $SMP    HTTFIX=.F. CALL64=.T. $END
 $P2P    P2P=.T. XDLB=.T. $END
 $STATPT OPTTOL=0.0001 NSTEP=100 $END
 $DATA 
O2 singlet axial in Q4 DFT-D4/def2TZVP & spherical basis functions. C4h Geom opt
CNH 4

 C           6.0  -1.6318012625   3.2030001602   0.0000000000
 C           6.0  -0.1012355076   3.5928516291   0.0000000000
 N           7.0   0.3842839420   3.0343655938  -1.2413203455
 N           7.0  -1.7913086261   2.4809528201  -1.2418777516
 C           6.0  -0.6354591073   2.4917725485  -2.0250391882
 O           8.0  -0.5432998000   2.1321940121  -3.1743593892
 C           6.0   1.7665950394   2.9764364223  -1.6720203135
 H           1.0   2.2958738695   3.8686563978  -1.3176599379
 H           1.0   1.7552604856   2.9588367081  -2.7652037532
 H           1.0   0.0500035917   4.6830827209   0.0000000000
 H           1.0  -2.2857495630   4.0884717496   0.0000000000
 O           8.0   0.0000000000   0.0000000000   0.6061575073
 $END
