 $CONTRL EXETYP=RUN $END
 $CONTRL SCFTYP=RHF DFTTYP=B97D RUNTYP=OPTIMIZE MAXIT=200 ICHARG=+1
         D5=.T. INTTYP=HONDO ICUT=11 ITOL=30 $END
 $SYSTEM TIMLIM=3600 MWORDS=100 $END
 $SCF    DIRSCF=.T. NCONV=7 $END
 $BASIS  EXTFIL=.T. GBASIS=TZVP $END
 $DFTD   VERSN=4 $END
 $SMP    HTTFIX=.F. CALL64=.T. $END
 $P2P    P2P=.T. XDLB=.T. $END
 $STATPT OPTTOL=0.0001 NSTEP=100 $END
 $DATA 
Q4.H(1,0)1+ DFT-D4/def2TZVP & spherical basis functions. C1 geom opt
C1
C           6.0      -3.217389   -1.634678    0.007842
C           6.0       1.634678   -3.217389    0.007842
C           6.0       3.217389    1.634678    0.007842
C           6.0      -1.634678    3.217389    0.007842
C           6.0      -3.607037   -0.105615    0.008163
C           6.0       0.105615   -3.607037    0.008163
C           6.0       3.607037    0.105615    0.008163
C           6.0      -0.105615    3.607037    0.008163
N           7.0      -3.040708    0.385854   -1.219817
N           7.0      -0.385854   -3.040708   -1.219817
N           7.0       3.040708   -0.385854   -1.219817
N           7.0       0.385854    3.040708   -1.219817
N           7.0      -2.480533   -1.793640   -1.218258
N           7.0       1.793640   -2.480533   -1.218258
N           7.0       2.480533    1.793640   -1.218258
N           7.0      -1.793640    2.480533   -1.218258
C           6.0      -2.471121   -0.629964   -1.997174
C           6.0       0.629964   -2.471121   -1.997174
C           6.0       2.471121    0.629964   -1.997174
C           6.0      -0.629964    2.471121   -1.997174
O           8.0      -2.079323   -0.529359   -3.130463
O           8.0       0.529359   -2.079323   -3.130463
O           8.0       2.079323    0.529359   -3.130463
O           8.0      -0.529359    2.079323   -3.130463
C           6.0      -2.983896    1.770798   -1.653128
C           6.0      -1.770798   -2.983896   -1.653128
C           6.0       2.983896   -1.770798   -1.653128
C           6.0       1.770798    2.983896   -1.653128
H           1.0      -3.876270    2.301780   -1.305623
H           1.0      -2.301780   -3.876270   -1.305623
H           1.0       3.876270   -2.301780   -1.305623
H           1.0       2.301780    3.876270   -1.305623
H           1.0      -2.963332    1.758547   -2.746162
H           1.0      -1.758547   -2.963332   -2.746162
H           1.0       2.963332   -1.758547   -2.746162
H           1.0       1.758547    2.963332   -2.746162
H           1.0      -4.691773    0.058878    0.037239
H           1.0      -0.058878   -4.691773    0.037239
H           1.0       4.691773   -0.058878    0.037239
H           1.0       0.058878    4.691773    0.037239
H           1.0      -4.091375   -2.298089    0.033198
H           1.0       2.298089   -4.091375    0.033198
H           1.0       4.091375    2.298089    0.033198
H           1.0      -2.298089    4.091375    0.033198
N           7.0      -3.011907    0.380213    1.247022
N           7.0      -0.380213   -3.011907    1.247022
N           7.0       3.011907   -0.380213    1.247022
N           7.0       0.380213    3.011907    1.247022
N           7.0      -2.467208   -1.778075    1.249449
N           7.0       1.778075   -2.467208    1.249449
N           7.0       2.467208    1.778075    1.249449
N           7.0      -1.778075    2.467208    1.249449
C           6.0      -2.328758   -0.594407    1.930914
C           6.0       0.594407   -2.328758    1.930914
C           6.0       2.328758    0.594407    1.930914
C           6.0      -0.594407    2.328758    1.930914
O           8.0      -1.729295   -0.443168    2.996743
O           8.0       0.443168   -1.729295    2.996743
O           8.0       1.729295    0.443168    2.996743
O           8.0      -0.443168    1.729295    2.996743
C           6.0      -2.966506    1.761218    1.679330
C           6.0      -1.761218   -2.966506    1.679330
C           6.0       2.966506   -1.761218    1.679330
C           6.0       1.761218    2.966506    1.679330
H           1.0      -3.849965    2.284272    1.304612
H           1.0      -2.284272   -3.849965    1.304612
H           1.0       3.849965   -2.284272    1.304612
H           1.0       2.284272    3.849965    1.304612
H           1.0      -2.973292    1.764083    2.771398
H           1.0      -1.764083   -2.973292    2.771398
H           1.0       2.973292   -1.764083    2.771398
H           1.0       1.764083    2.973292    2.771398
H           1.0       0.000000    0.000000    2.986259
$END
