 $CONTRL EXETYP=RUN $END
 $CONTRL SCFTYP=RHF DFTTYP=B97D RUNTYP=OPTIMIZE MAXIT=200 ICHARG=+2
         D5=.T. INTTYP=HONDO ICUT=11 ITOL=30 $END
 $SYSTEM TIMLIM=3600 MWORDS=100 $END
 $SCF    DIRSCF=.T. NCONV=7 $END
 $BASIS  EXTFIL=.T. GBASIS=TZVP $END
 $DFTD   VERSN=4 $END
 $SMP    HTTFIX=.F. CALL64=.T. $END
 $P2P    P2P=.T. XDLB=.T. $END
 $STATPT OPTTOL=0.0001 NSTEP=100 $END
 $DATA 
Q4.H(2,0)2+ DFT-D4/def2TZVP & spherical basis functions. C1 geom opt
C1
 C           6.0  -3.2173892416  -1.6346780881   0.0078420484
 C           6.0   1.6346780881  -3.2173892416   0.0078420484
 C           6.0   3.2173892416   1.6346780881   0.0078420484
 C           6.0  -1.6346780881   3.2173892416   0.0078420484
 C           6.0  -3.6070371150  -0.1056146498   0.0081628543
 C           6.0   0.1056146498  -3.6070371150   0.0081628543
 C           6.0   3.6070371150   0.1056146498   0.0081628543
 C           6.0  -0.1056146498   3.6070371150   0.0081628543
 N           7.0  -3.0407077203   0.3858541630  -1.2198172975
 N           7.0  -0.3858541630  -3.0407077203  -1.2198172975
 N           7.0   3.0407077203  -0.3858541630  -1.2198172975
 N           7.0   0.3858541630   3.0407077203  -1.2198172975
 N           7.0  -2.4805333197  -1.7936398918  -1.2182577575
 N           7.0   1.7936398918  -2.4805333197  -1.2182577575
 N           7.0   2.4805333197   1.7936398918  -1.2182577575
 N           7.0  -1.7936398918   2.4805333197  -1.2182577575
 C           6.0  -2.4711207206  -0.6299636171  -1.9971743011
 C           6.0   0.6299636171  -2.4711207206  -1.9971743011
 C           6.0   2.4711207206   0.6299636171  -1.9971743011
 C           6.0  -0.6299636171   2.4711207206  -1.9971743011
 O           8.0  -2.0793233572  -0.5293593209  -3.1304630206
 O           8.0   0.5293593209  -2.0793233572  -3.1304630206
 O           8.0   2.0793233572   0.5293593209  -3.1304630206
 O           8.0  -0.5293593209   2.0793233572  -3.1304630206
 C           6.0  -2.9838956941   1.7707978931  -1.6531284079
 C           6.0  -1.7707978931  -2.9838956941  -1.6531284079
 C           6.0   2.9838956941  -1.7707978931  -1.6531284079
 C           6.0   1.7707978931   2.9838956941  -1.6531284079
 H           1.0  -3.8762697013   2.3017797453  -1.3056232245
 H           1.0  -2.3017797453  -3.8762697013  -1.3056232245
 H           1.0   3.8762697013  -2.3017797453  -1.3056232245
 H           1.0   2.3017797453   3.8762697013  -1.3056232245
 H           1.0  -2.9633321585   1.7585469699  -2.7461616431
 H           1.0  -1.7585469699  -2.9633321585  -2.7461616431
 H           1.0   2.9633321585  -1.7585469699  -2.7461616431
 H           1.0   1.7585469699   2.9633321585  -2.7461616431
 H           1.0  -4.6917733137   0.0588776816   0.0372389067
 H           1.0  -0.0588776816  -4.6917733137   0.0372389067
 H           1.0   4.6917733137  -0.0588776816   0.0372389067
 H           1.0   0.0588776816   4.6917733137   0.0372389067
 H           1.0  -4.0913752285  -2.2980889972   0.0331977164
 H           1.0   2.2980889972  -4.0913752285   0.0331977164
 H           1.0   4.0913752285   2.2980889972   0.0331977164
 H           1.0  -2.2980889972   4.0913752285   0.0331977164
 N           7.0  -3.0119069632   0.3802132734   1.2470224763
 N           7.0  -0.3802132734  -3.0119069632   1.2470224763
 N           7.0   3.0119069632  -0.3802132734   1.2470224763
 N           7.0   0.3802132734   3.0119069632   1.2470224763
 N           7.0  -2.4672077916  -1.7780748649   1.2494491318
 N           7.0   1.7780748649  -2.4672077916   1.2494491318
 N           7.0   2.4672077916   1.7780748649   1.2494491318
 N           7.0  -1.7780748649   2.4672077916   1.2494491318
 C           6.0  -2.3287583549  -0.5944073557   1.9309140639
 C           6.0   0.5944073557  -2.3287583549   1.9309140639
 C           6.0   2.3287583549   0.5944073557   1.9309140639
 C           6.0  -0.5944073557   2.3287583549   1.9309140639
 O           8.0  -1.7292946557  -0.4431676948   2.9967426982
 O           8.0   0.4431676948  -1.7292946557   2.9967426982
 O           8.0   1.7292946557   0.4431676948   2.9967426982
 O           8.0  -0.4431676948   1.7292946557   2.9967426982
 C           6.0  -2.9665064040   1.7612178945   1.6793296309
 C           6.0  -1.7612178945  -2.9665064040   1.6793296309
 C           6.0   2.9665064040  -1.7612178945   1.6793296309
 C           6.0   1.7612178945   2.9665064040   1.6793296309
 H           1.0  -3.8499654790   2.2842721922   1.3046122841
 H           1.0  -2.2842721922  -3.8499654790   1.3046122841
 H           1.0   3.8499654790  -2.2842721922   1.3046122841
 H           1.0   2.2842721922   3.8499654790   1.3046122841
 H           1.0  -2.9732923573   1.7640827980   2.7713978073
 H           1.0  -1.7640827980  -2.9732923573   2.7713978073
 H           1.0   2.9732923573  -1.7640827980   2.7713978073
 H           1.0   1.7640827980   2.9732923573   2.7713978073
 H           1.0   0.5000000000   0.5000000000   2.9862585782
 H           1.0  -0.5000000000  -0.5000000000   2.9862585782 
 $END
