 $CONTRL EXETYP=RUN $END
 $CONTRL SCFTYP=RHF DFTTYP=B97D RUNTYP=OPTIMIZE MAXIT=100 ICHARG=+1
         D5=.T. INTTYP=HONDO ICUT=11 ITOL=30 $END
 $SYSTEM TIMLIM=3600 MWORDS=100 $END
 $SCF    DIRSCF=.T. NCONV=7 $END
 $BASIS  EXTFIL=.T. GBASIS=TZVP $END
 $DFTD   VERSN=4 $END
 $SMP    HTTFIX=.F. CALL64=.T. $END
 $P2P    P2P=.T. XDLB=.T. $END
 $STATPT OPTTOL=0.0001 NSTEP=100 $END
 $DATA 
Q4.H(1,0)+ DFT-D4/def2TZVP & spherical basis functions. C4 geom opt
CN 4

 C           6.0  -1.6386536036   3.2347159143   0.0000000000
 C           6.0  -0.1102529267   3.6233773876   0.0000000000
 N           7.0   0.3812813753   3.0229489412  -1.2277726639
 N           7.0  -1.7833789430   2.4730964966  -1.2283927588
 C           6.0  -0.5950726852   2.3315899505  -1.9093785823
 O           8.0  -0.4409499946   1.7216578598  -2.9638660774
 C           6.0   1.7658807821   2.9748112256  -1.6651199597
 H           1.0   2.2921645159   3.8623424217  -1.3064103471
 H           1.0   1.7630106692   2.9707084766  -2.7570674822
 H           1.0   0.0654000725   4.7040570230   0.0000000000
 H           1.0  -2.3091906111   4.1003087096   0.0000000000
 N           7.0   0.3812813753   3.0229489412   1.2277726639
 N           7.0  -1.7833789430   2.4730964966   1.2283927588
 C           6.0  -0.5950726852   2.3315899505   1.9093785823
 O           8.0  -0.4409499946   1.7216578598   2.9638660774
 C           6.0   1.7658807821   2.9748112256   1.6651199597
 H           1.0   2.2921645159   3.8623424217   1.3064103471
 H           1.0   1.7630106692   2.9707084766   2.7570674822
 H           1.0   0.0000000000   0.0000000000   2.9673944423
 $END
