 $CONTRL EXETYP=RUN $END
 $CONTRL SCFTYP=RHF DFTTYP=B97D RUNTYP=OPTIMIZE MAXIT=200 ICHARG=+1
         D5=.T. INTTYP=HONDO ICUT=11 ITOL=30 $END
 $SYSTEM TIMLIM=3600 MWORDS=100 $END
 $SCF    DIRSCF=.T. NCONV=7 $END
 $BASIS  EXTFIL=.T. GBASIS=TZVP $END
 $DFTD   VERSN=4 $END
 $SMP    HTTFIX=.F. CALL64=.T. $END
 $P2P    P2P=.T. XDLB=.T. $END
 $STATPT OPTTOL=0.0001 NSTEP=100 $END
 $DATA 
Q4.H(1,0)1+ DFT-D4/def2TZVP & spherical basis functions. C4 geom opt
CN 4

 C           6.0  -1.6301584268   3.1983554438   0.0136622138
 C           6.0  -0.1005034295   3.5881761341   0.0136646555
 N           7.0   0.3846991713   3.0295468495  -1.2268012712
 N           7.0  -1.7887991030   2.4750807535  -1.2268889140
 C           6.0  -0.6321774771   2.4791094112  -2.0076329744
 O           8.0  -0.5385730460   2.1142480751  -3.1554204933
 C           6.0   1.7652998074   2.9743848228  -1.6592664663
 H           1.0   2.2949643223   3.8665001934  -1.3055649056
 H           1.0   1.7534489782   2.9556186641  -2.7525315389
 H           1.0   0.0515844872   4.6785113881   0.0142088293
 H           1.0  -2.2851344559   4.0832403204   0.0133061614
 N           7.0   0.3849435987   3.0283044976   1.2535281037
 N           7.0  -1.7891230765   2.4760698337   1.2547122370
 C           6.0  -0.6320124055   2.4786239726   2.0347229655
 O           8.0  -0.5381329676   2.1132461322   3.1823053142
 C           6.0   1.7653472871   2.9742237694   1.6866596773
 H           1.0   2.2946602012   3.8667207595   1.3334676947
 H           1.0   1.7529223616   2.9552896404   2.7799577166
 H           1.0   0.0000000000   0.0000000000   4.0
 $END
