 $CONTRL EXETYP=RUN $END
 $CONTRL SCFTYP=RHF DFTTYP=B97D RUNTYP=OPTIMIZE MAXIT=200 ICHARG=+4
         D5=.T. INTTYP=HONDO ICUT=11 ITOL=30 $END
 $SYSTEM TIMLIM=3600 MWORDS=100 $END
 $SCF    DIRSCF=.T. NCONV=7 $END
 $BASIS  EXTFIL=.T. GBASIS=TZVP $END
 $DFTD   VERSN=4 $END
 $SMP    HTTFIX=.F. CALL64=.T. $END
 $P2P    P2P=.T. XDLB=.T. $END
 $STATPT OPTTOL=0.0001 NSTEP=100 $END
 $DATA 
Q4.H(4,0)4+ DFT-D4/def2TZVP & spherical basis functions. C1 geom opt
C1
 C           6.0  -3.2275474286  -1.6425623198  -0.0256678085
 C           6.0   1.6305955224  -3.2249645703   0.0010211714
 C           6.0   3.2275474275   1.6425623201  -0.0256678087
 C           6.0  -1.6305955214   3.2249645693   0.0010211744
 C           6.0  -3.6171645253  -0.1138735017  -0.0061796520
 C           6.0   0.1057918439  -3.6368150641  -0.0233676466
 C           6.0   3.6171645248   0.1138735018  -0.0061796509
 C           6.0  -0.1057918402   3.6368150603  -0.0233676465
 N           7.0  -3.0412675379   0.3909312112  -1.2107211638
 N           7.0  -0.3887383182  -3.0435541665  -1.2291491265
 N           7.0   3.0412675346  -0.3909312122  -1.2107211654
 N           7.0   0.3887383218   3.0435541638  -1.2291491222
 N           7.0  -2.4881456230  -1.8010017753  -1.2336254472
 N           7.0   1.7922642237  -2.4748602659  -1.2062892863
 N           7.0   2.4881456245   1.8010017780  -1.2336254496
 N           7.0  -1.7922642221   2.4748602661  -1.2062892829
 C           6.0  -2.4611813323  -0.6224983841  -2.0015961606
 C           6.0   0.6295649519  -2.4595198219  -1.9960879570
 C           6.0   2.4611813331   0.6224983867  -2.0015961565
 C           6.0  -0.6295649470   2.4595198109  -1.9960879798
 O           8.0  -2.0530555834  -0.5096437158  -3.1217458371
 O           8.0   0.5327231957  -2.0502942243  -3.1188334725
 O           8.0   2.0530555820   0.5096437143  -3.1217458417
 O           8.0  -0.5327231963   2.0502942316  -3.1188334484
 C           6.0  -2.9905740770   1.7789189142  -1.6483550511
 C           6.0  -1.7745827736  -2.9945093304  -1.6689717114
 C           6.0   2.9905740816  -1.7789189151  -1.6483550529
 C           6.0   1.7745827763   2.9945093303  -1.6689717124
 H           1.0  -3.8837457554   2.3104338354  -1.3085478182
 H           1.0  -2.3049433579  -3.8854019075  -1.3215103161
 H           1.0   3.8837457529  -2.3104338358  -1.3085478160
 H           1.0   2.3049433550   3.8854019080  -1.3215103160
 H           1.0  -2.9672060715   1.7671108234  -2.7434203014
 H           1.0  -1.7628193356  -2.9776950746  -2.7623419738
 H           1.0   2.9672060726  -1.7671108261  -2.7434203021
 H           1.0   1.7628193330   2.9776950775  -2.7623419725
 H           1.0  -4.6987556277   0.0574623898   0.0369919192
 H           1.0  -0.0473973726  -4.7236532908  -0.0028859668
 H           1.0   4.6987556284  -0.0574623909   0.0369919202
 H           1.0   0.0473973734   4.7236532871  -0.0028859701
 H           1.0  -4.0930675663  -2.3151973022   0.0316208013
 H           1.0   2.3048991072  -4.0891919512   0.0433342082
 H           1.0   4.0930675648   2.3151972991   0.0316208036
 H           1.0  -2.3048991075   4.0891919514   0.0433342103
 N           7.0  -3.0100827957   0.3623017523   1.2746560781
 N           7.0  -0.3995376294  -3.0611936763   1.2244823833
 N           7.0   3.0100827945  -0.3623017522   1.2746560799
 N           7.0   0.3995376259   3.0611936785   1.2244823897
 N           7.0  -2.4550933530  -1.7947630656   1.2258523393
 N           7.0   1.7517695243  -2.4637763594   1.2669251756
 N           7.0   2.4550933482   1.7947630632   1.2258523392
 N           7.0  -1.7517695224   2.4637763577   1.2669251749
 C           6.0  -2.3741038950  -0.6387468079   1.9018087801
 C           6.0   0.5587337310  -2.3869361795   1.9267758794
 C           6.0   2.3741038972   0.6387468091   1.9018087702
 C           6.0  -0.5587337368   2.3869361943   1.9267758553
 O           8.0  -1.7889274744  -0.5038924410   3.0392690190
 O           8.0   0.3548311090  -1.8049404040   3.0053493560
 O           8.0   1.7889274663   0.5038924458   3.0392690224
 O           8.0  -0.3548311034   1.8049403948   3.0053493815
 C           6.0  -2.9426303726   1.7671197423   1.7080090299
 C           6.0  -1.7731362998  -3.0123322403   1.6527207596
 C           6.0   2.9426303719  -1.7671197403   1.7080090307
 C           6.0   1.7731362987   3.0123322425   1.6527207582
 H           1.0  -3.8219750076   2.2882292855   1.3163321318
 H           1.0  -2.3215660021  -3.8763548193   1.2723588505
 H           1.0   3.8219750098  -2.2882292846   1.3163321286
 H           1.0   2.3215660027   3.8763548179   1.2723588502
 H           1.0  -2.9874984675   1.7839894733   2.7967316424
 H           1.0  -1.7914241638  -3.0394639149   2.7423872956
 H           1.0   2.9874984650  -1.7839894731   2.7967316397
 H           1.0   1.7914241670   3.0394639156   2.7423872967
 H           1.0   0.9250287454   1.1106773043   3.1394963835
 H           1.0  -0.9250287435  -1.1106773024   3.1394963826 
 H           1.0   1.1106773024  -0.9250287454   3.1394963835
 H           1.0  -1.1106773024   0.9250287454   3.1394963826 
 $END
