 $CONTRL EXETYP=RUN $END
 $CONTRL SCFTYP=RHF DFTTYP=B97D RUNTYP=OPTIMIZE MAXIT=200 ICHARG=+1
         D5=.T. INTTYP=HONDO ICUT=11 ITOL=30 $END
 $SYSTEM TIMLIM=3600 MWORDS=60 $END
 $SCF    DIRSCF=.T. NCONV=7 $END
 $BASIS  EXTFIL=.T. GBASIS=TZVP $END
 $DFTD   VERSN=4 $END
 $SMP    HTTFIX=.F. CALL64=.T. $END
 $P2P    P2P=.T. XDLB=.T. $END
 $STATPT OPTTOL=0.0001 NSTEP=100 $END
 $DATA 
Q4.H(1,0)1+ DFT-D4/def2TZVP & spherical basis functions. C1 geom opt
C1
 C           6.0  -3.2173890000  -1.6346780000   0.0078420000
 C           6.0   1.6346780000  -3.2173890000   0.0078420000
 C           6.0   3.2173890000   1.6346780000   0.0078420000
 C           6.0  -1.6346780000   3.2173890000   0.0078420000
 C           6.0  -3.6070370000  -0.1056150000   0.0081630000
 C           6.0   0.1056150000  -3.6070370000   0.0081630000
 C           6.0   3.6070370000   0.1056150000   0.0081630000
 C           6.0  -0.1056150000   3.6070370000   0.0081630000
 N           7.0  -3.0407080000   0.3858540000  -1.2198170000
 N           7.0  -0.3858540000  -3.0407080000  -1.2198170000
 N           7.0   3.0407080000  -0.3858540000  -1.2198170000
 N           7.0   0.3858540000   3.0407080000  -1.2198170000
 N           7.0  -2.4805330000  -1.7936400000  -1.2182580000
 N           7.0   1.7936400000  -2.4805330000  -1.2182580000
 N           7.0   2.4805330000   1.7936400000  -1.2182580000
 N           7.0  -1.7936400000   2.4805330000  -1.2182580000
 C           6.0  -2.4711210000  -0.6299640000  -1.9971740000
 C           6.0   0.6299640000  -2.4711210000  -1.9971740000
 C           6.0   2.4711210000   0.6299640000  -1.9971740000
 C           6.0  -0.6299640000   2.4711210000  -1.9971740000
 O           8.0  -2.0793230000  -0.5293590000  -3.1304630000
 O           8.0   0.5293590000  -2.0793230000  -3.1304630000
 O           8.0   2.0793230000   0.5293590000  -3.1304630000
 O           8.0  -0.5293590000   2.0793230000  -3.1304630000
 C           6.0  -2.9838960000   1.7707980000  -1.6531280000
 C           6.0  -1.7707980000  -2.9838960000  -1.6531280000
 C           6.0   2.9838960000  -1.7707980000  -1.6531280000
 C           6.0   1.7707980000   2.9838960000  -1.6531280000
 H           1.0  -3.8762700000   2.3017800000  -1.3056230000
 H           1.0  -2.3017800000  -3.8762700000  -1.3056230000
 H           1.0   3.8762700000  -2.3017800000  -1.3056230000
 H           1.0   2.3017800000   3.8762700000  -1.3056230000
 H           1.0  -2.9633320000   1.7585470000  -2.7461620000
 H           1.0  -1.7585470000  -2.9633320000  -2.7461620000
 H           1.0   2.9633320000  -1.7585470000  -2.7461620000
 H           1.0   1.7585470000   2.9633320000  -2.7461620000
 H           1.0  -4.6917730000   0.0588780000   0.0372390000
 H           1.0  -0.0588780000  -4.6917730000   0.0372390000
 H           1.0   4.6917730000  -0.0588780000   0.0372390000
 H           1.0   0.0588780000   4.6917730000   0.0372390000
 H           1.0  -4.0913750000  -2.2980890000   0.0331980000
 H           1.0   2.2980890000  -4.0913750000   0.0331980000
 H           1.0   4.0913750000   2.2980890000   0.0331980000
 H           1.0  -2.2980890000   4.0913750000   0.0331980000
 N           7.0  -3.0119070000   0.3802130000   1.2470220000
 N           7.0  -0.3802130000  -3.0119070000   1.2470220000
 N           7.0   3.0119070000  -0.3802130000   1.2470220000
 N           7.0   0.3802130000   3.0119070000   1.2470220000
 N           7.0  -2.4672080000  -1.7780750000   1.2494490000
 N           7.0   1.7780750000  -2.4672080000   1.2494490000
 N           7.0   2.4672080000   1.7780750000   1.2494490000
 N           7.0  -1.7780750000   2.4672080000   1.2494490000
 C           6.0  -2.3287580000  -0.5944070000   1.9309140000
 C           6.0   0.5944070000  -2.3287580000   1.9309140000
 C           6.0   2.3287580000   0.5944070000   1.9309140000
 C           6.0  -0.5944070000   2.3287580000   1.9309140000
 O           8.0  -1.7292950000  -0.4431680000   2.9967430000
 O           8.0   0.4431680000  -1.7292950000   2.9967430000
 O           8.0   1.7292950000   0.4431680000   2.9967430000
 O           8.0  -0.4431680000   1.7292950000   2.9967430000
 C           6.0  -2.9665060000   1.7612180000   1.6793300000
 C           6.0  -1.7612180000  -2.9665060000   1.6793300000
 C           6.0   2.9665060000  -1.7612180000   1.6793300000
 C           6.0   1.7612180000   2.9665060000   1.6793300000
 H           1.0  -3.8499650000   2.2842720000   1.3046120000
 H           1.0  -2.2842720000  -3.8499650000   1.3046120000
 H           1.0   3.8499650000  -2.2842720000   1.3046120000
 H           1.0   2.2842720000   3.8499650000   1.3046120000
 H           1.0  -2.9732920000   1.7640830000   2.7713980000
 H           1.0  -1.7640830000  -2.9732920000   2.7713980000
 H           1.0   2.9732920000  -1.7640830000   2.7713980000
 H           1.0   1.7640830000   2.9732920000   2.7713980000
 H           1.0  -1.4380000000   0.5000000000  -3.4420000000
$END
