 $CONTRL EXETYP=RUN $END
 $CONTRL SCFTYP=RHF DFTTYP=B97D RUNTYP=OPTIMIZE MAXIT=200 ICHARG=+1
         D5=.T. INTTYP=HONDO ICUT=11 ITOL=30 $END
 $SYSTEM TIMLIM=3600 MWORDS=60 $END
 $SCF    DIRSCF=.T. NCONV=7 $END
 $BASIS  EXTFIL=.T. GBASIS=TZVP $END
 $DFTD   VERSN=4 $END
 $SMP    HTTFIX=.F. CALL64=.T. $END
 $P2P    P2P=.T. XDLB=.T. $END
 $STATPT OPTTOL=0.0001 NSTEP=100 $END
 $DATA 
Q4.Li+ DFT-D4/def2TZVP & spherical basis functions. C1 geom opt
C1
 C           6.0  -3.2148601514  -1.6255069458  -0.0126262376
 C           6.0   1.6285464516  -3.2045287042  -0.0030232067
 C           6.0   3.2086760014   1.6343234496  -0.0013030190
 C           6.0  -1.6498272377   3.2433802600   0.0151076282
 C           6.0  -3.6070479615  -0.0936511553   0.0041742513
 C           6.0   0.1040247824  -3.6058748413  -0.0010086986
 C           6.0   3.5973174128   0.1061786317  -0.0016964853
 C           6.0  -0.1131902218   3.5929723067  -0.0187418047
 N           7.0  -3.0209998277   0.4044190834  -1.2529496202
 N           7.0  -0.3845047042  -3.0188068164  -1.2365239873
 N           7.0   3.0344232991  -0.3849986530  -1.2444055176
 N           7.0   0.3479272363   3.0073616722  -1.2879401201
 N           7.0  -2.4779201675  -1.7591167533  -1.2835344578
 N           7.0   1.7888911110  -2.4709643422  -1.2450143212
 N           7.0   2.4568327476   1.7827397327  -1.2359576207
 N           7.0  -1.8276925436   2.5180372702  -1.2379410551
 C           6.0  -2.3935667288  -0.5935075507  -1.9241730805
 C           6.0   0.6385976840  -2.4478103536  -2.0159252236
 C           6.0   2.4547832238   0.6178480798  -2.0097916103
 C           6.0  -0.6569087275   2.3685041225  -1.9473516498
 O           8.0  -1.8207285929  -0.4642248281  -3.0683040545
 O           8.0   0.5165153926  -2.0457993929  -3.1413771438
 O           8.0   2.0427304317   0.5231324106  -3.1427445258
 O           8.0  -0.5953373568   1.7557249751  -3.0227781204
 C           6.0  -3.0036053557   1.8185254945  -1.6575596521
 C           6.0  -1.7342469096  -2.9890307032  -1.6900205357
 C           6.0   2.9844695640  -1.7644125185  -1.6731586296
 C           6.0   1.7646285074   2.9509192678  -1.6922617522
 H           1.0  -3.8900342586   2.3105211657  -1.2542880958
 H           1.0  -2.3055516589  -3.8414606283  -1.3152776120
 H           1.0   3.8678581098  -2.2961605736  -1.3035596803
 H           1.0   2.2567567260   3.8537290873  -1.3127769434
 H           1.0  -3.0504510219   1.8740302785  -2.7479978273
 H           1.0  -1.7205981578  -3.0055182528  -2.7824592898
 H           1.0   2.9827823708  -1.7629566268  -2.7657726907
 H           1.0   1.7971302982   2.9565733887  -2.7846346900
 H           1.0  -4.6906988105   0.0830105379  -0.0427452317
 H           1.0  -0.0505010881  -4.6933169472  -0.0222829271
 H           1.0   4.6868294842  -0.0476992474  -0.0015133507
 H           1.0   0.0699972951   4.6779052770  -0.0365224993
 H           1.0  -4.0850186884  -2.2964280099  -0.0472026887
 H           1.0   2.2871393889  -4.0868891316  -0.0081247718
 H           1.0   4.0901353530   2.2914906335  -0.0174973387
 H           1.0  -2.2970832007   4.1306947303   0.0141345996
 N           7.0  -3.0414383197   0.3904488909   1.2208752445
 N           7.0  -0.3832676430  -3.0550113916   1.2362482399
 N           7.0   3.0255348710  -0.3834407987   1.2307654611
 N           7.0   0.3853281863   3.0071357633   1.1970198876
 N           7.0  -2.4592942174  -1.7791195973   1.1921683528
 N           7.0   1.7836334894  -2.4718214765   1.2304743915
 N           7.0   2.4929564025   1.7957968842   1.2396002305
 N           7.0  -1.8016712829   2.4907756219   1.2304763882
 C           6.0  -2.4626942986  -0.6315114166   1.9874372350
 C           6.0   0.6290719788  -2.4727930633   2.0113109147
 C           6.0   2.4698969808   0.6292734513   2.0130781935
 C           6.0  -0.6250228244   2.4682331781   1.9935906396
 O           8.0  -2.0823065054  -0.5417395842   3.1244707348
 O           8.0   0.5174831538  -2.0819448277   3.1439155232
 O           8.0   2.0750153878   0.5306271992   3.1447655151
 O           8.0  -0.5262365592   2.0842129254   3.1294700610
 C           6.0  -2.9836169932   1.7817466615   1.6650878932
 C           6.0  -1.7603292590  -2.9870321400   1.6475436787
 C           6.0   2.9751550419  -1.7637106394   1.6634231934
 C           6.0   1.7731812931   2.9734198486   1.6529460427
 H           1.0  -3.8814173021   2.3104129170   1.3253977358
 H           1.0  -2.3020374372  -3.8732501178   1.3031714115
 H           1.0   3.8643849715  -2.2944578306   1.3059061149
 H           1.0   2.2938497995   3.8712740644   1.3033349236
 H           1.0  -2.9620089741   1.7577297349   2.7602092259
 H           1.0  -1.7697872490  -2.9439613745   2.7411124803
 H           1.0   2.9627757813  -1.7566830949   2.7567119949
 H           1.0   1.7422162355   2.9649526192   2.7463826402
 Li          3.0   0.0            0.0            3.2
 $END
