 $CONTRL SCFTYP=RHF DFTTYP=B97D RUNTYP=OPTIMIZE
         INTTYP=HONDO ICUT=11 ITOL=30 $END
 $SYSTEM TIMLIM=3600 MWORDS=130 $END
 $SCF    DIRSCF=.T. NCONV=7 $END
 $BASIS  EXTFIL=.T. GBASIS=TZVP $END
 $DFTD   VERSN=4 $END
 $SMP    HTTFIX=.F. CALL64=.T. $END
 $P2P    P2P=.T. XDLB=.T. $END
 $STATPT OPTTOL=0.00005 NSTEP=100 $END
 $LICENSE NBOLID=1587 NBOKEY=BC142C89 $end
 $NBO FILE=Q4_opt_DFT-D4_def2TZVP.1 ARCHIVE $END
 $DATA 
Q4 DFT-D4/def2TZVP geometry optimisation
C1
 C           6.0  -1.7587682287   0.0946777376  -1.3250600802
 C           6.0  -0.1973301442   0.1789131382  -1.5110257613
 N           7.0  -2.0357073973   1.0438291916  -0.2475993502
 N           7.0   0.2215904441   1.1674269247  -0.5173164865
 C           6.0  -0.8662004496   1.7019738873   0.2319528995
 N           7.0  -2.0037644452  -1.3186166858  -1.0391050704
 N           7.0   0.2549583060  -1.1971607918  -1.3044503329
 C           6.0  -0.8116761960  -2.1007419529  -1.0248808765
 C           6.0  -3.3378818469   1.2392454195   0.3964781271
 C           6.0  -3.2932865624  -1.8866697712  -0.6344090167
 H           1.0  -2.3000933198   0.3913221817  -2.2348239442
 H           1.0   0.0795737171   0.5175170307  -2.5199019635
 N           7.0  -3.5772807482   0.4297669493   1.5936213262
 N           7.0  -3.5315451695  -1.9494314504   0.8096728962
 C           6.0  -4.1616987984  -0.9122966333   1.6289987533
 C           6.0  -3.9084490566  -1.3950161641   3.1102704642
 C           6.0  -3.0676139432   0.8467007910   2.8564627635
 C           6.0  -2.9836064459  -3.0106194233   1.5846261149
 N           7.0  -3.1495889426  -2.6366737882   2.9471515998
 N           7.0  -3.2231361218  -0.2621741702   3.7361456695
 O           8.0  -2.5298290264  -4.0572931172   1.1684997117
 O           8.0  -2.6537288438   1.9503380957   3.1444385050
 H           1.0  -4.1306121265   1.0486773259  -0.3347252135
 H           1.0  -3.3818058047   2.2871499694   0.7151396327
 H           1.0  -3.3155999167  -2.9194300357  -1.0012907179
 H           1.0  -4.0987917542  -1.3161222307  -1.1090360825
 H           1.0  -5.2368544049  -0.8567251395   1.3975357781
 H           1.0  -4.8533586882  -1.5980799090   3.6384728123
 C           6.0  -2.5204479772  -3.4198675137   4.0130955755
 C           6.0  -2.5905445544  -0.2546683607   5.0575091775
 O           8.0  -0.7282128077  -3.3007287907  -0.8764358910
 O           8.0  -0.8151078542   2.5845928043   1.0626185729
 C           6.0   1.6534777936  -1.6325936646  -1.2426265810
 C           6.0   1.6072060888   1.5430268378  -0.2209903766
 N           7.0   2.2663190111  -1.6044315842   0.0874271913
 N           7.0   2.2561310596   0.7804896214   0.8483418258
 C           6.0   2.9836606395  -0.4811706095   0.6940360803
 C           6.0   3.2374618819  -0.9548760958   2.1781712839
 C           6.0   2.0762303148   1.1540720718   2.2102491980
 N           7.0   2.6410064393  -2.2912923077   2.2258094990
 N           7.0   2.6197824996   0.0946987962   2.9917227458
 O           8.0   1.6215534802   2.2012161129   2.6223874771
 O           8.0   1.7130333099  -3.8189338771   0.6836638202
 C           6.0   2.1259582312  -2.7132241155   0.9678041860
 H           1.0   1.6706529459  -2.6785243069  -1.5693779221
 H           1.0   2.2498482512  -1.0256303420  -1.9324828724
 H           1.0   2.2039410738   1.4646457128  -1.1361201923
 H           1.0   1.5882089932   2.5867027859   0.1125652675
 H           1.0   3.9289057766  -0.3040461618   0.1570262803
 H           1.0   4.3129514240  -1.0171268816   2.4069783723
 C           6.0   2.4256383135  -3.1040514909   3.4254104457
 C           6.0   2.3557578484   0.0292319726   4.4313110295
 N           7.0   1.1243156883  -2.9349567273   4.0794340740
 N           7.0  -1.1363224303  -3.0566812582   4.3311524062
 C           6.0  -0.0430636495  -3.5914460609   3.5894537429
 N           7.0   1.0657238494  -0.5541072330   4.8101937877
 N           7.0  -1.1896264907  -0.6847826157   5.0935294629
 C           6.0  -0.1288061840   0.2227255627   4.8070214551
 C           6.0  -0.7271486964  -2.0546676483   5.3155297385
 C           6.0   0.8340343386  -1.9614242611   5.1317805920
 O           8.0  -0.0894000046  -4.4771176904   2.7614731775
 O           8.0  -0.2174706877   1.4238627642   4.6546719866
 H           1.0  -2.5005706382  -4.4586593571   3.6642320786
 H           1.0  -3.1276825514  -3.3526221007   4.9221523937
 H           1.0  -3.1743046068  -0.8786713723   5.7422493527
 H           1.0  -2.6121997824   0.7846142250   5.4043483771
 H           1.0   3.2182467671  -2.8949042559   4.1516240236
 H           1.0   2.4893071631  -4.1523295518   3.1109212160
 H           1.0   2.3585056831   1.0634833669   4.7945149020
 H           1.0   3.1595405714  -0.5298206795   4.9216343605
 H           1.0  -1.0037768686  -2.3862348683   6.3265352271
 H           1.0   1.3751822614  -2.2323082307   6.0492512942
 $END
