 $CONTRL EXETYP=RUN $END
 $CONTRL SCFTYP=RHF DFTTYP=B97D RUNTYP=OPTIMIZE
         D5=.T. INTTYP=HONDO ICUT=11 ITOL=30 $END
 $SYSTEM TIMLIM=3600 MWORDS=60 $END
 $SCF    DIRSCF=.T. NCONV=7 $END
 $BASIS  EXTFIL=.T. GBASIS=TZVP $END
 $DFTD   VERSN=4 $END
 $SMP    HTTFIX=.F. CALL64=.T. $END
 $P2P    P2P=.T. XDLB=.T. $END
 $STATPT OPTTOL=0.0001 NSTEP=100 $END
 $DATA 
Q4 DFT-D4/def2TZVP & spherical basis functions. Geom opt with C4 symmetry
CN 4

 C           6.0  -1.6241136921   3.1811855198   0.0136696418
 C           6.0  -0.0974221088   3.5698721391   0.0136963552
 N           7.0   0.3825258748   3.0324336243  -1.2337815156
 N           7.0  -1.7886243199   2.4795214485  -1.2341905699
 C           6.0  -0.6271945375   2.4592694733  -2.0014815602
 O           8.0  -0.5398457459   2.1183007090  -3.1600458496
 C           6.0   1.7592786826   2.9641893621  -1.6573097909
 H           1.0   2.2898116520   3.8583376121  -1.3020286593
 H           1.0   1.7469072253   2.9448874377  -2.7512703220
 H           1.0   0.0521590765   4.6641125251   0.0140372672
 H           1.0  -2.2783543068   4.0708635205   0.0133947192
 N           7.0   0.3827512230   3.0318601479   1.2607578978
 N           7.0  -1.7890043694   2.4803164774   1.2618620800
 C           6.0  -0.6267282035   2.4575785568   2.0280282533
 O           8.0  -0.5387258242   2.1143337026   3.1857581560
 C           6.0   1.7593545462   2.9641727577   1.6848843456
 H           1.0   2.2899333540   3.8590118310   1.3313278718
 H           1.0   1.7465156761   2.9445493341   2.7787806849
 $END
