 $CONTRL EXETYP=RUN $END
 $CONTRL SCFTYP=RHF DFTTYP=B97D RUNTYP=OPTIMIZE
         D5=.T. INTTYP=HONDO ICUT=11 ITOL=30 $END
 $SYSTEM TIMLIM=3600 MWORDS=60 $END
 $SCF    DIRSCF=.T. NCONV=7 $END
 $BASIS  EXTFIL=.T. GBASIS=TZVP $END
 $DFTD   VERSN=4 $END
 $SMP    HTTFIX=.F. CALL64=.T. $END
 $P2P    P2P=.T. XDLB=.T. $END
 $STATPT OPTTOL=0.0001 NSTEP=100 $END
 $DATA 
Q4 DFT-D4/def2TZVP & spherical basis functions. Geom opt with C4h symmetry
CNH 4

 C           6.0  -1.6262241594   3.2008111466   0.0000000000
 C           6.0  -0.1027654918   3.5794583486   0.0000000000
 N           7.0   0.3806213464   3.0135259482  -1.2374763805
 N           7.0  -1.7841850032   2.4742658547  -1.2402620002
 C           6.0  -0.6362180160   2.4827967451  -2.0038685137
 O           8.0  -0.5529843295   2.1439066642  -3.1660259141
 C           6.0   1.7614504312   2.9667284495  -1.6728909297
 H           1.0   2.2765245139   3.8476639052  -1.3133762050
 H           1.0   1.7620827653   2.9658420943  -2.7505473788
 H           1.0   0.0606052390   4.6488595780   0.0000000000
 H           1.0  -2.2719156921   4.0695199353   0.0000000000
 $END
