#libdir  /Applications/Firefly/ECP/
 $CONTRL EXETYP=RUN $END
 $CONTRL SCFTYP=RHF DFTTYP=B97D RUNTYP=OPTIMIZE
         ECP=READ D5=.T. INTTYP=HONDO ICUT=11 ITOL=30 $END
 $SYSTEM TIMLIM=3600 MWORDS=60 $END
 $SCF    DIRSCF=.T. NCONV=7 $END
 $BASIS  EXTFIL=.T. GBASIS=TZVP $END
 $DFTD   VERSN=4 $END
 $SMP    HTTFIX=.F. CALL64=.T. $END
 $P2P    P2P=.T. XDLB=.T. $END
 $STATPT OPTTOL=0.0001 NSTEP=100 $END
 $DATA 
Rn in Q4 DFT-D4/def2TZVP with spherical basis functions and Rn ECP. C4h Geom opt
CNH 4

 C           6.0  -1.6302465779   3.1989189579   0.0000000000
 C           6.0  -0.1004500376   3.5879924313   0.0000000000
 N           7.0   0.3847175709   3.0284894531  -1.2399956807
 N           7.0  -1.7892805837   2.4761882814  -1.2408060267
 C           6.0  -0.6325067995   2.4795507695  -2.0214210874
 O           8.0  -0.5392577566   2.1154326522  -3.1694463542
 C           6.0   1.7656202646   2.9748584143  -1.6718320062
 H           1.0   2.2940563223   3.8663511162  -1.3149993747
 H           1.0   1.7553857796   2.9591315616  -2.7651350336
 H           1.0   0.0522867127   4.6781504693   0.0000000000
 H           1.0  -2.2847184792   4.0840245349   0.0000000000
 RN         86.0   0.0000000000   0.0000000000   0.0000000000
 $END
 $ECP 
C-ECP NONE
C-ECP
C-ECP
C-ECP
C-ECP
C-ECP
C-ECP
C-ECP
N-ECP NONE
N-ECP
N-ECP
N-ECP
N-ECP
N-ECP
N-ECP
N-ECP
N-ECP
N-ECP
N-ECP
N-ECP
N-ECP
N-ECP
N-ECP
N-ECP
C-ECP
C-ECP
C-ECP
C-ECP
C-ECP
C-ECP
C-ECP
C-ECP
O-ECP NONE
O-ECP
O-ECP
O-ECP
O-ECP
O-ECP
O-ECP
O-ECP
C-ECP
C-ECP
C-ECP
C-ECP
C-ECP
C-ECP
C-ECP
C-ECP
H-ECP NONE
H-ECP
H-ECP
H-ECP
H-ECP
H-ECP
H-ECP
H-ECP
H-ECP
H-ECP
H-ECP
H-ECP
H-ECP
H-ECP
H-ECP
H-ECP
H-ECP
H-ECP
H-ECP
H-ECP
H-ECP
H-ECP
H-ECP
H-ECP
@Rn_def2_SVP.ecp
 $END