#libdir  /Applications/Firefly/ECP/
 $CONTRL EXETYP=RUN $END
 $CONTRL SCFTYP=RHF DFTTYP=B97D RUNTYP=OPTIMIZE
         ECP=READ D5=.T. INTTYP=HONDO ICUT=11 ITOL=30 $END
 $SYSTEM TIMLIM=3600 MWORDS=130 $END
 $SCF    DIRSCF=.T. NCONV=6 $END
 $BASIS  EXTFIL=.T. GBASIS=TZVP $END
 $DFTD   VERSN=4 $END
 $SMP    HTTFIX=.F. CALL64=.T. $END
 $P2P    P2P=.T. XDLB=.T. $END
 $STATPT OPTTOL=0.0001 NSTEP=100 $END
 $DATA 
Rn in Q4 DFT-D4/def2TZVP with spherical basis functions and Rn ECP. Geometry optimisation
C1
 C           6.0  -1.7547444015   0.1029209348  -1.3121979584
 C           6.0  -0.1884853045   0.1965524374  -1.5188610019
 N           7.0  -2.0078741395   1.0456405007  -0.2433915758
 N           7.0   0.2191898857   1.1979198697  -0.5561372599
 C           6.0  -0.8658179715   1.7700695130   0.1171318151
 N           7.0  -1.9783736924  -1.3084345559  -1.0659313134
 N           7.0   0.2554656387  -1.1707349315  -1.3348380517
 C           6.0  -0.8112943301  -2.0681402630  -1.2146222514
 C           6.0  -3.2799344716   1.2498062024   0.4360520690
 C           6.0  -3.2151597793  -1.9250794377  -0.6113937993
 H           1.0  -2.3070766353   0.4127107659  -2.2123904850
 H           1.0   0.0722801013   0.5380179698  -2.5315944841
 N           7.0  -3.5131182025   0.4183280781   1.6062808869
 N           7.0  -3.4212188202  -1.9490370294   0.8306994564
 C           6.0  -4.0681126754  -0.9200286671   1.6179336760
 C           6.0  -3.8390148727  -1.3998500663   3.1091257768
 C           6.0  -3.1077841893   0.8392880180   2.8774832801
 C           6.0  -2.9586509495  -3.0140347939   1.6140023818
 N           7.0  -3.1103153399  -2.6416680065   2.9539324032
 N           7.0  -3.1696430301  -0.2716011268   3.7238073619
 O           8.0  -2.5247415150  -4.0649778983   1.2095173276
 O           8.0  -2.7863325709   1.9628246527   3.1903337802
 H           1.0  -4.0940087257   1.1025902603  -0.2840194005
 H           1.0  -3.2790859285   2.2825112983   0.7915576448
 H           1.0  -3.1715003214  -2.9673509582  -0.9359108621
 H           1.0  -4.0680296573  -1.4215914840  -1.0824377938
 H           1.0  -5.1375360434  -0.8741513718   1.3604940833
 H           1.0  -4.7891698005  -1.5900833077   3.6294748469
 C           6.0  -2.5007127595  -3.4193901270   4.0233896592
 C           6.0  -2.5710859746  -0.2408229090   5.0500634712
 O           8.0  -0.7429256324  -3.2733485200  -1.2545824717
 O           8.0  -0.8260708538   2.7225371576   0.8570202334
 C           6.0   1.6351705554  -1.6267369152  -1.2492066718
 C           6.0   1.5884580437   1.5476770481  -0.2081788468
 N           7.0   2.2289470096  -1.6084461398   0.0796829605
 N           7.0   2.1948709201   0.7602922809   0.8544747541
 C           6.0   2.9113592172  -0.4894014449   0.6937856882
 C           6.0   3.1424177123  -0.9711719481   2.1831811945
 C           6.0   2.1130194546   1.1625417937   2.1921172634
 N           7.0   2.5381572897  -2.2868539238   2.2079200758
 N           7.0   2.5466918027   0.0857280615   2.9748075697
 O           8.0   1.7563678106   2.2429303102   2.5962477494
 O           8.0   1.7106599005  -3.8050698692   0.6468033276
 C           6.0   2.1050465831  -2.7033446500   0.9431782563
 H           1.0   1.6295695515  -2.6708386863  -1.5727322801
 H           1.0   2.2547247338  -1.0268359392  -1.9250056074
 H           1.0   2.2128475907   1.4819935340  -1.1059035502
 H           1.0   1.5618278446   2.5780851309   0.1550474534
 H           1.0   3.8605010751  -0.3023588352   0.1701001002
 H           1.0   4.2128222739  -1.0497243962   2.4282260767
 C           6.0   2.3494134383  -3.1245212336   3.3860615451
 C           6.0   2.2991046085   0.0587711200   4.4074830713
 N           7.0   1.0983382325  -2.9376002638   4.1045060408
 N           7.0  -1.1358416221  -3.0555196659   4.3722708885
 C           6.0  -0.0415543574  -3.6727324993   3.7585107355
 N           7.0   1.0417559811  -0.5492627603   4.8219925915
 N           7.0  -1.1866780638  -0.6827367863   5.1330046441
 C           6.0  -0.1269906068   0.2106318723   4.9454180030
 C           6.0  -0.7370229782  -2.0443884278   5.3301497763
 C           6.0   0.8295164329  -1.9480942740   5.1287334776
 O           8.0  -0.0685217346  -4.6707729858   3.0757537720
 O           8.0  -0.2047745333   1.4163569781   4.9121047699
 H           1.0  -2.4588421440  -4.4529437397   3.6699954163
 H           1.0  -3.1298508572  -3.3530908347   4.9178090166
 H           1.0  -3.1803509216  -0.8429966316   5.7329931682
 H           1.0  -2.5820702405   0.8059314345   5.3637340353
 H           1.0   3.1899167144  -2.9649801578   4.0727485531
 H           1.0   2.3448193345  -4.1586127333   3.0352127624
 H           1.0   2.2603100218   1.1019137202   4.7279747469
 H           1.0   3.1261469221  -0.4578411333   4.9095939652
 H           1.0  -1.0011059958  -2.3737197557   6.3463278579
 H           1.0   1.3781637472  -2.2101392197   6.0463738368
 RN         86.0  -0.4601235650  -0.9292497385   1.8993180170
 $END
 $ECP 
C-ECP NONE
C-ECP
N-ECP NONE
N-ECP
C-ECP
N-ECP
N-ECP
C-ECP
C-ECP
C-ECP
H-ECP NONE
H-ECP
N-ECP
N-ECP
C-ECP
C-ECP
C-ECP
C-ECP
N-ECP
N-ECP
O-ECP NONE
O-ECP
H-ECP
H-ECP
H-ECP
H-ECP
H-ECP
H-ECP
C-ECP
C-ECP
O-ECP
O-ECP
C-ECP
C-ECP
N-ECP
N-ECP
C-ECP
C-ECP
C-ECP
N-ECP
N-ECP
O-ECP
O-ECP
C-ECP
H-ECP
H-ECP
H-ECP
H-ECP
H-ECP
H-ECP
C-ECP
C-ECP
N-ECP
N-ECP
C-ECP
N-ECP
N-ECP
C-ECP
C-ECP
C-ECP
O-ECP
O-ECP
H-ECP
H-ECP
H-ECP
H-ECP
H-ECP
H-ECP
H-ECP
H-ECP
H-ECP
H-ECP
@Rn_def2_SVP.ecp
 $END