 $CONTRL EXETYP=RUN $END
 $CONTRL SCFTYP=RHF DFTTYP=B97D RUNTYP=OPTIMIZE MAXIT=100 ICHARG=-2
         D5=.T. INTTYP=HONDO ICUT=11 ITOL=30 $END
 $SYSTEM TIMLIM=3600 MWORDS=60 $END
 $SCF    DIRSCF=.T. NCONV=7 $END
 $BASIS  EXTFIL=.T. GBASIS=TZVP $END
 $DFTD   VERSN=4 $END
 $SMP    HTTFIX=.F. CALL64=.T. $END
 $P2P    P2P=.T. XDLB=.T. $END
 $STATPT OPTTOL=0.0001 NSTEP=100 $END
 $DATA 
Se2- in Q4 DFT-D4/def2TZVP & spherical basis functions. C4h geom opt
CNH 4

 C           6.0  -1.6272856339   3.1892251026   0.0000000000
 C           6.0  -0.0980719835   3.5774388989   0.0000000000
 N           7.0   0.3812602740   3.0615004654  -1.2567110046
 N           7.0  -1.8026737906   2.5082997204  -1.2578876642
 C           6.0  -0.6193040462   2.4269351729  -1.9982934120
 O           8.0  -0.5393182383   2.1139256164  -3.1698377563
 C           6.0   1.7616781720   2.9684466466  -1.6665395545
 H           1.0   2.2924392897   3.8646705467  -1.3094314644
 H           1.0   1.7479931099   2.9472302485  -2.7610280317
 H           1.0   0.0460743241   4.6751134599   0.0000000000
 H           1.0  -2.2768337032   4.0856999380   0.0000000000
 Se         34.0   0.0000000000   0.0000000000   0.0000000000
 $END
