 $CONTRL EXETYP=RUN $END
 $CONTRL SCFTYP=RHF DFTTYP=B97D RUNTYP=OPTIMIZE MAXIT=200 ICHARG=-1
         D5=.T. INTTYP=HONDO ICUT=11 ITOL=30 $END
 $SYSTEM TIMLIM=3600 MWORDS=80 $END
 $SCF    DIRSCF=.T. NCONV=7 $END
 $BASIS  EXTFIL=.T. GBASIS=TZVP $END
 $DFTD   VERSN=4 $END
 $SMP    HTTFIX=.F. CALL64=.T. $END
 $P2P    P2P=.T. XDLB=.T. $END
 $STATPT OPTTOL=0.0001 NSTEP=100 $END
 $DATA 
SeH- axial in Q4 DFT-D4/def2TZVP & spherical basis functions. C4 Geom opt
CN 4

 C           6.0  -1.6302854957   3.1989023818  -0.0044613661
 C           6.0  -0.0999452532   3.5864869682  -0.0044376352
 N           7.0   0.3815604951   3.0542617709  -1.2557336497
 N           7.0  -1.7997834490   2.5017481512  -1.2565740488
 C           6.0  -0.6312029589   2.4723688621  -2.0164729708
 O           8.0  -0.5394387372   2.1120028964  -3.1687587277
 C           6.0   1.7639439470   2.9723874725  -1.6740815601
 H           1.0   2.2936408649   3.8671678256  -1.3191403225
 H           1.0   1.7514256302   2.9528242088  -2.7677073120
 H           1.0   0.0475140802   4.6804391295  -0.0028589196
 H           1.0  -2.2803230729   4.0908802867  -0.0039976601
 N           7.0   0.3817524221   3.0528842759   1.2482064700
 N           7.0  -1.7999675635   2.5029579647   1.2501444554
 C           6.0  -0.6335047387   2.4824808331   2.0128138204
 O           8.0  -0.5438771473   2.1313797247   3.1693286579
 C           6.0   1.7642276918   2.9724241823   1.6678932871
 H           1.0   2.2933356693   3.8672885917   1.3127495302
 H           1.0   1.7514414839   2.9531931121   2.7614216121
 Se         34.0   0.0000000000   0.0000000000   0.00
 H           1.0   0.0000000000   0.0000000000   1.40
 $END
