#libdir  /Applications/Firefly/ECP/
 $CONTRL EXETYP=RUN $END
 $CONTRL SCFTYP=RHF DFTTYP=B97D RUNTYP=OPTIMIZE
         ECP=READ D5=.T. INTTYP=HONDO ICUT=11 ITOL=30 $END
 $SYSTEM TIMLIM=3600 MWORDS=60 $END
 $SCF    DIRSCF=.T. NCONV=7 $END
 $BASIS  EXTFIL=.T. GBASIS=TZVP $END
 $DFTD   VERSN=4 $END
 $SMP    HTTFIX=.F. CALL64=.T. $END
 $P2P    P2P=.T. XDLB=.T. $END
 $STATPT OPTTOL=0.0001 NSTEP=100 $END
 $DATA 
Xe in Q4 DFT-D4/def2TZVP with spherical basis functions and Xe ECP. C4h Geom opt
CNH 4

 C           6.0  -1.6406230268   3.2275832596   0.0000000000
 C           6.0  -0.1048784716   3.6180088819   0.0000000000
 N           7.0   0.3828646414   3.0648705015  -1.2476425415
 N           7.0  -1.8049949245   2.5089596230  -1.2479314609
 C           6.0  -0.6446755234   2.5264563414  -2.0317593857
 O           8.0  -0.5513758501   2.1601259378  -3.1786265546
 C           6.0   1.7737617950   2.9884417718  -1.6723868588
 H           1.0   2.3034713607   3.8820836248  -1.3230249564
 H           1.0   1.7607177158   2.9675667767  -2.7646023288
 H           1.0   0.0422983729   4.7084346974   0.0000000000
 H           1.0  -2.2904116235   4.1153916939   0.0000000000
 XE         54.0   0.0000000000   0.0000000000   0.0000000000
 $END
 $ECP 
C-ECP NONE
C-ECP
C-ECP
C-ECP
C-ECP
C-ECP
C-ECP
C-ECP
N-ECP NONE
N-ECP
N-ECP
N-ECP
N-ECP
N-ECP
N-ECP
N-ECP
N-ECP
N-ECP
N-ECP
N-ECP
N-ECP
N-ECP
N-ECP
N-ECP
C-ECP
C-ECP
C-ECP
C-ECP
C-ECP
C-ECP
C-ECP
C-ECP
O-ECP NONE
O-ECP
O-ECP
O-ECP
O-ECP
O-ECP
O-ECP
O-ECP
C-ECP
C-ECP
C-ECP
C-ECP
C-ECP
C-ECP
C-ECP
C-ECP
H-ECP NONE
H-ECP
H-ECP
H-ECP
H-ECP
H-ECP
H-ECP
H-ECP
H-ECP
H-ECP
H-ECP
H-ECP
H-ECP
H-ECP
H-ECP
H-ECP
H-ECP
H-ECP
H-ECP
H-ECP
H-ECP
H-ECP
H-ECP
H-ECP
@Xe_def2_SVP.ecp
 $END